! Touchstone file exported from HFSS 2026.1.0
!        File:           C:/Users/urbaneja/Ansys/Project1.aedt
!        Generated:      01:41:12 PM Aug 10, 2026
!        Design:         HFSSDesign_Kinetic_debug
!        Project:        Project1
!        Setup:          Setup1
!        Solution:       Sweep_lowfreq
!
! Variables:
!        port_below = 1um
!        port_width = 30um
!        stub_length = 3.9um
!
# GHz S MA R 50.000000
! Terminal data exported
! Port[1] = Port1
! Port[2] = Port2
0.01                           0.00222404637090039 179.566857339073 0.999997526805805 -0.00293861226642306 0.999997526805818 -0.00293861226642306 0.00222404637090044 0.42726543639385 
! Gamma         0                8.44117700771883 0                8.45026568210111 
! Port Impedance         50               0                50               0                
0.02                           0.00222423577156309 179.131705042448 0.999997526384554 -0.00587263590629413 0.999997526384559 -0.00587263590629409 0.00222423577156332 0.856549685739538 
! Gamma         2.10469144372204E-32 16.8823540154963 0                16.9005313642613 
! Port Impedance         50               0                50               0                
0.03                           0.0022245505735526 178.697401212669 0.9999975256843  -0.00880833333298479 0.999997525684323 -0.0088083333329848 0.0022245505735528 1.28498212066449 
! Gamma         4.61752688465285E-33 25.3235310233911 0                25.3507970465397 
! Port Impedance         50               0                50               0                
0.04                           0.00222498781087676 178.266213527053 0.999997524711559 -0.0117506561206274 0.999997524711554 -0.0117506561206274 0.00222498781087676 1.71028516070529 
! Gamma         1.46596139280437E-39 33.7647080314619 0                33.8010627289952 
! Port Impedance         50               0                50               0                
0.05                           0.00222555714586904 177.829868667422 0.999997523444638 -0.0146810385334463 0.999997523444619 -0.0146810385334463 0.00222555714586904 2.14076925551128 
! Gamma         1.27498512095998E-33 42.2058850397673 0                42.2513284116872 
! Port Impedance         50               0                50               0                
0.06                           0.00222625002452485 177.396143123414 0.999997521902353 -0.0176167195018058 0.999997521902335 -0.0176167195018058 0.00222625002452473 2.56862343758224 
! Gamma         1.19395530759012E-38 50.6470620483661 0                50.7015940946745 
! Port Impedance         50               0                50               0                
0.07                           0.00222706665208092 176.963715474783 0.99999752008399 -0.0205546477128225 0.999997520083988 -0.0205546477128226 0.00222706665208089 2.99517522979122 
! Gamma         2.65969612215149E-37 59.0882390573167 0                59.1518597780163 
! Port Impedance         50               0                50               0                
0.08                           0.00222801082813611 176.530406518552 0.999997517980787 -0.0234898472894049 0.999997517980802 -0.0234898472894049 0.00222801082813556 3.4226137868697  
! Gamma         4.57635452111509E-33 67.529416066678  0                67.6021254617717 
! Port Impedance         50               0                50               0                
0.09                           0.00222908221485173 176.096785359852 0.999997515593149 -0.0264234778904415 0.999997515593158 -0.0264234778904416 0.00222908221485193 3.85036768436641 
! Gamma         5.33771587970769E-37 75.9705930765086 0                76.0523911459998 
! Port Impedance         50               0                50               0                
0.1                            0.00223027746018975 175.664259957472 0.99999751292812 -0.0293585827331746 0.999997512928145 -0.0293585827331746 0.00223027746018971 4.27702287706185 
! Gamma         1.19622218823998E-32 84.411770086867  0                84.5026568307596 
! Port Impedance         50               0                50               0                
