! Touchstone file exported from HFSS 2026.1.0
!        Generated:      11:50:27 AM Aug 24, 2026
!        Design:         HFSSDesign_Kinetic_debug
!        Project:        kinetic_stub_sweep
!        Setup:          Setup1
!        Solution:       Sweep_lowfreq
!
! Variables:
!        stub_length = 2.5um
!
# GHz S MA R 50.000000
! Terminal data exported
! Port[1] = Port1
! Port[2] = Port2
0.01                           0.0145541776508133 -0.0372504569018496 0.999894082347177 -0.00446256231943083 0.999894082347184 -0.00446256231943078 0.0145541776508139 -179.971674667737 
! Gamma         0                8.69442993807901 4.19232650564855E-39 8.55004556674232 
! Port Impedance         50               0                50               0                
0.02                           0.0145541845572907 -0.0738068044809519 0.999894082246653 -0.00891516764921288 0.999894082246648 -0.00891516764921284 0.0145541845572904 -179.944023530818 
! Gamma         0                17.3888598762299 0                17.1000911335477 
! Port Impedance         50               0                50               0                
0.03                           0.0145541961426143 -0.110565827289627 0.999894082078031 -0.0133706809991661 0.999894082078005 -0.013370680999166 0.0145541961426145 -179.916175534709 
! Gamma         0                26.0832898145243 3.44536394081421E-32 25.6501367004794 
! Port Impedance         50               0                50               0                
0.04                           0.0145542122730427 -0.147407201516241 0.999894081843255 -0.0178273765449078 0.9998940818432  -0.0178273765449078 0.0145542122730428 -179.888247551574 
! Gamma         0                34.7777197530343 1.50166564923593E-40 34.2001822676003 
! Port Impedance         50               0                50               0                
0.05                           0.0145542329205169 -0.184069414358106 0.999894081542702 -0.0222815030452213 0.999894081542673 -0.0222815030452213 0.0145542329205168 -179.860493591732 
! Gamma         0                43.4721496918316 0                42.7502278349737 
! Port Impedance         50               0                50               0                
0.06                           0.0145542586510008 -0.221331264973726 0.999894081168163 -0.0267442330573369 0.999894081168159 -0.0267442330573369 0.0145542586510012 -179.832157201141 
! Gamma         0                52.1665796309881 9.00259567885377E-33 51.3002734026626 
! Port Impedance         50               0                50               0                
0.07                           0.0145542887005227 -0.258127423969232 0.999894080730774 -0.0312002841686993 0.999894080730756 -0.0312002841686993 0.0145542887005223 -179.804273144368 
! Gamma         0                60.8610095705755 8.67918662010475E-33 59.8503189707302 
! Port Impedance         50               0                50               0                
0.08                           0.0145543233720043 -0.294917645244588 0.999894080226091 -0.0356562520552648 0.999894080226093 -0.0356562520552648 0.0145543233720039 -179.776394858866 
! Gamma         0                69.5554395106657 2.35157390405501E-32 68.4003645392395 
! Port Impedance         50               0                50               0                
0.09                           0.0145543629462473 -0.3317633980643 0.999894079650065 -0.0401130188703619 0.999894079650044 -0.0401130188703615 0.0145543629462483 -179.748462639676 
! Gamma         0                78.2498694513305 1.57159418556529E-38 76.9504101082536 
! Port Impedance         50               0                50               0                
0.1                            0.014554406970411 -0.368460495171762 0.999894079009261 -0.0445676556341886 0.999894079009223 -0.0445676556341887 0.014554406970411 -179.720674816097 
! Gamma         0                86.9442993926418 0                85.5004556778357 
! Port Impedance         50               0                50               0                
