! Touchstone file exported from HFSS 2026.1.0
!        Generated:      11:50:49 AM Aug 24, 2026
!        Design:         HFSSDesign_Kinetic_debug
!        Project:        kinetic_stub_sweep
!        Setup:          Setup1
!        Solution:       Sweep_discrete_debug
!
! Variables:
!        stub_length = 2.5um
!
# GHz S MA R 50.000000
! Terminal data exported
! Port[1] = Port1
! Port[2] = Port2
0.2                            0.00983484549235288 177.421857321065 0.999951636737587 -0.0529313504929177 0.999951636737551 -0.0529313504929176 0.00983484549235199 2.472279977949   
! Gamma         1.31840650613476E-31 167.210279057433 4.23870525183608E-32 169.078208790485 
! Port Impedance         50               0                50               0                
0.696666666666667              0.00994052919850611 171.082058260475 0.999950591718465 -0.184377009277669 0.999950591719609 -0.184377009277669 0.00994052919850665 8.54918772096952 
! Gamma         2.22277639517307E-31 582.449141575262 4.47398779587539E-31 588.955763694855 
! Port Impedance         50               0                50               0                
1.19333333333333               0.010159735668628 164.941806779803 0.999948388554229 -0.315822117002338 0.999948388553172 -0.315822117002338 0.0101597356686287 14.4265489861907 
! Gamma         2.97146984859391E-31 997.688013593194 1.35250361038869E-31 1008.83332881761 
! Port Impedance         50               0                50               0                
1.69                           0.0104852315506476 159.115043555198 0.999945028448487 -0.447265563071675 0.99994502844897 -0.447265563071675 0.0104852315506473 19.9904253186595 
! Gamma         1.69080139786723E-30 1412.92690188401 1.81737672824574E-30 1428.71091144362 
! Port Impedance         50               0                50               0                
2.18666666666667               0.0109075157085816 153.680328790676 0.99994051128096 -0.578706706751258 0.999940511281199 -0.578706706751258 0.0109075157085819 25.1622577958202 
! Gamma         1.00923489268506E-30 1828.16581322043 9.03138344498326E-32 1848.58851885765 
! Port Impedance         50               0                50               0                
2.68333333333333               0.0114158605480776 148.679764194789 0.999934836940759 -0.710144978182389 0.999934836940963 -0.710144978182391 0.0114158605480778 29.8999458488462 
! Gamma         7.88593716974708E-32 2243.40475437509 4.87621004196769E-30 2268.46615834444 
! Port Impedance         50               0                50               0                
3.18                           0.0119990017808116 144.123032574878 0.999928009386888 -0.841579318618666 0.999928009386729 -0.841579318618665 0.0119990017808113 34.1938087878855 
! Gamma         3.88367729026547E-30 2658.64373212058 5.53324501220697E-30 2688.34383718863 
! Port Impedance         50               0                50               0                
3.67666666666667               0.0126467176717402 139.998339554664 0.999920027068416 -0.973009560843448 0.999920027068046 -0.973009560843449 0.0126467176717402 38.0556413236489 
! Gamma         3.04263965545827E-30 3073.88275322935 1.83973945948761E-30 3108.22156267473 
! Port Impedance         50               0                50               0                
4.17333333333333               0.0133495472401993 136.278800152004 0.999910890823712 -1.10443466106735 0.999910890824325 -1.10443466106735 0.013349547240199 41.5123305258623 
! Gamma         7.04484298844586E-33 3489.12182447371 4.97035047103872E-29 3528.09934208709 
! Port Impedance         50               0                50               0                
4.67                           0.014099417326728 132.93098804527  0.999900598275002 -1.23585386155828 0.999900598275342 -1.23585386155828 0.0140994173267278 44.5973042316145 
! Gamma         4.02640979791773E-21 3904.36094934231 1.01283819315285E-28 3947.97718270996 
! Port Impedance         50               0                50               0                
5.16666666666667               0.0148891048884883 129.917577585773 0.999889151134009 -1.36726642771927 0.999889151134141 -1.36726642771927 0.0148891048884882 47.3478895587888 
! Gamma         1.33097534432621E-22 4319.60014837594 0                4367.85508832234 
! Port Impedance         50               0                50               0                
5.66333333333333               0.0157127676293819 127.202845522879 0.999876546846522 -1.49867157113539 0.999876546846222 -1.49867157113539 0.0157127676293822 49.7998113348482 
! Gamma         4.66876744334395E-21 4734.83940731946 0                4787.73307568183 
! Port Impedance         50               0                50               0                
6.16                           0.0165645070828538 124.748761953505 0.999862799140375 -1.63006853021991 0.999862799140651 -1.63006853021991 0.0165645070828539 51.9911009860553 
! Gamma         5.24668564805499E-21 5150.07874676516 0                5207.61114294105 
! Port Impedance         50               0                50               0                
6.65666666666667               0.0174398023396394 122.522693356325 0.999847915082305 -1.76145579450228 0.999847915082227 -1.76145579450228 0.0174398023396392 53.9543950546718 
! Gamma         0                5565.31816889988 0                5627.4893036326  
! Port Impedance         50               0                50               0                
7.15333333333333               0.0183356341535167 120.499012257167 0.999831888129686 -1.89283345132035 0.999831888128902 -1.89283345132035 0.0183356341535165 55.7153208401937 
! Gamma         0                5980.55768320298 0                6047.36755896933 
! Port Impedance         50               0                50               0                
7.65                           0.0192491478557501 118.653789092818 0.999814717988504 -2.02420084775909 0.999814717988899 -2.0242008477591 0.0192491478557504 57.2978092116618 
! Gamma         0                6395.79729761588 0                6467.24591833766 
! Port Impedance         50               0                50               0                
8.14666666666667               0.0201778860531072 116.965844116914 0.999796405731764 -2.15555717358082 0.999796405732038 -2.15555717358082 0.0201778860531069 58.7230415359255 
! Gamma         0                6811.03701143513 0                6887.12439051458 
! Port Impedance         50               0                50               0                
8.64333333333333               0.0211197068457594 115.416328235091 0.999776954116648 -2.28690196760046 0.999776954116635 -2.28690196760046 0.0211197068457596 60.0098678297071 
! Gamma         0                7226.27684033087 0                7307.00298574873 
! Port Impedance         50               0                50               0                
9.14                           0.0220727922410677 113.988972447226 0.99975636624276 -2.41823424053721 0.999756366242514 -2.41823424053721 0.0220727922410679 61.1745590716981 
! Gamma         0                7641.51678346451 0                7726.8817036549  
! Port Impedance         50               0                50               0                
9.63666666666667               0.023035687627486 112.670007915532 0.999734643340518 -2.54955359805965 0.999734643340853 -2.54955359805965 0.0230356876274861 62.2308848883487 
! Gamma         0                8056.75685301111 0                8146.76055954627 
! Port Impedance         50               0                50               0                
10.1333333333333               0.0240070423578407 111.447007361432 0.999711789426266 -2.68085916612186 0.999711789425627 -2.68085916612187 0.0240070423578406 63.1912743063241 
! Gamma         0                8471.99705582455 0                8566.63955342586 
! Port Impedance         50               0                50               0                
10.63                          0.0249858229592784 110.309808517687 0.99968780559299 -2.81215024612468 0.999687805592711 -2.81215024612469 0.0249858229592781 64.0658909900648 
! Gamma         0                8887.23739391945 0                8986.51869563874 
! Port Impedance         50               0                50               0                
11.1266666666667               0.0259710451598647 109.249055112986 0.999662695519753 -2.9434262728296 0.999662695519239 -2.9434262728296 0.0259710451598644 64.8640923413555 
! Gamma         0                9302.47787796884 0                9406.3979940566  
! Port Impedance         50               0                50               0                
11.6233333333333               0.0269619157348277 108.256897100819 0.999636461470576 -3.07468664594528 0.999636461469069 -3.07468664594528 0.0269619157348277 65.5937296072902 
! Gamma         0                9717.71851476667 0                9826.27745778162 
! Port Impedance         50               0                50               0                
12.12                          0.0279576923261874 107.326236641333 0.999609107321374 -3.20593050768097 0.999609107321334 -3.20593050768097 0.0279576923261872 66.2619023433063 
! Gamma         0                10132.9593093107 0                10246.1570887656 
! Port Impedance         50               0                50               0                
12.6166666666667               0.0289578078054918 106.451237426213 0.999580634749761 -3.33715732014218 0.999580634750126 -3.33715732014218 0.0289578078054919 66.8744479335023 
! Gamma         0                10548.200267003  0                10666.0369001472 
! Port Impedance         50               0                50               0                
13.1133333333333               0.0299609012436901 105.62274056653  0.999551071429863 -3.46836323723943 0.999551071429941 -3.46836323723943 0.02996090124369 67.4405329589914 
! Gamma         0                10963.4413985997 0                11085.916895678  
! Port Impedance         50               0                50               0                
13.61                          0.03096679392763 104.837485084459 0.99952041383575 -3.59954834334836 0.999520413835205 -3.59954834334836 0.03096679392763 67.9634182288445 
! Gamma         0                11378.682710078  0                11505.7970839208 
! Port Impedance         50               0                50               0                
14.1066666666667               0.03197555979656 104.093637257769 0.999488651048831 -3.73071379161451 0.999488651049116 -3.7307137916145 0.0319755597965598 68.4449351590024 
! Gamma         0                11793.9242068364 0                11925.677470415  
! Port Impedance         50               0                50               0                
14.6033333333333               0.032986826268235 103.387535330783 0.999455786562286 -3.86185894297413 0.999455786562198 -3.86185894297414 0.032986826268235 68.8887467832688 
! Gamma         0                12209.1658930134 0                12345.5580648278 
! Port Impedance         50               0                50               0                
15.1                           0.0340002440831104 102.715815629143 0.999421824557962 -3.99298322338598 0.999421824557485 -3.99298322338598 0.0340002440831105 69.2982179240847 
! Gamma         0                12624.4077798837 0                12765.4388727682 
! Port Impedance         50               0                50               0                
15.5966666666667               0.0350155096725943 102.075556398265 0.999386769015079 -4.12408595422504 0.999386769015049 -4.12408595422504 0.0350155096725943 69.6762716932854 
! Gamma         0                13039.6498739753 0                13185.3199020701 
! Port Impedance         50               0                50               0                
16.0933333333333               0.0360323678784504 101.464242284092 0.999350623387453 -4.25516652060322 0.999350623387635 -4.25516652060322 0.0360323678784501 70.0254246747025 
! Gamma         0                13454.8921784022 0                13605.2011615397 
! Port Impedance         50               0                50               0                
16.59                          0.0370505519716994 100.879421856941 0.999313392584682 -4.38622425467488 0.999313392584167 -4.38622425467487 0.0370505519716995 70.3481296337084 
! Gamma         0                13870.1347030894 0                14025.082654981  
! Port Impedance         50               0                50               0                
17.0866666666667               0.0380698459049806 100.31902541797  0.999275080662589 -4.5172585793487 0.999275080662136 -4.5172585793487 0.0380698459049806 70.6464574233322 
! Gamma         0                14285.3774549847 0                14444.9643916233 
! Port Impedance         50               0                50               0                
17.5833333333333               0.0390900589769184 99.7812241489495 0.999235691560828 -4.64826889220464 0.999235691560963 -4.64826889220464 0.0390900589769185 70.922238066641  
! Gamma         0                14700.620439309  0                14864.8463804643 
! Port Impedance         50               0                50               0                
18.08                          0.0401109989199012 99.2642884130839 0.999195230055547 -4.7792545231522 0.999195230055438 -4.7792545231522 0.040110998919901 71.1772025406125 
! Gamma         0                15115.8636622589 0                15284.7286262963 
! Port Impedance         50               0                50               0                
18.5766666666667               0.0411324912203918 98.7666425993693 0.999153700971914 -4.91021490951625 0.999153700972045 -4.91021490951625 0.0411324912203918 71.4129275815976 
! Gamma         0                15531.1071323995 0                15704.6111365292 
! Port Impedance         50               0                50               0                
19.0733333333333               0.0421543896928983 98.2869407129623 0.999111108650659 -5.04114946720557 0.999111108651131 -5.04114946720558 0.0421543896928982 71.6307603526274 
! Gamma         0                15946.3508545759 0                16124.4939195709 
! Port Impedance         50               0                50               0                
19.57                          0.0431765477930849 97.8238933873853 0.999067458043338 -5.17205766072862 0.999067458042832 -5.17205766072862 0.0431765477930849 71.8319912911574 
! Gamma         0                16361.5948380931 0                16544.3769826278 
! Port Impedance         50               0                50               0                
20.0666666666667               0.0441988325370342 97.3763648108852 0.9990227540968  -5.30293880414813 0.999022754096007 -5.30293880414813 0.044198832537034 72.0177575808194 
! Gamma         0                16776.8390863972 0                16964.2603313456 
! Port Impedance         50               0                50               0                
20.5633333333333               0.0452211218279072 96.943280632522  0.998977001807899 -5.43379247408045 0.998977001807425 -5.43379247408045 0.0452211218279073 72.1891344193167 
! Gamma         0                17192.0836100688 0                17384.1439745381 
! Port Impedance         50               0                50               0                
21.06                          0.0462433020187152 96.5237006765931 0.998930206280153 -5.56461801498228 0.998930206279651 -5.56461801498227 0.0462433020187151 72.3470632934433 
! Gamma         0                17607.3284136552 0                17804.0279186327 
! Port Impedance         50               0                50               0                
21.5566666666667               0.0472652705413425 96.1167631770209 0.99888237255472 -5.69541493622377 0.998882372554827 -5.69541493622377 0.0472652705413424 72.4924069505316 
! Gamma         0                18022.5735038296 0                18223.9121723395 
! Port Impedance         50               0                50               0                
22.0533333333333               0.0482869276994708 95.721663543204  0.998833505952486 -5.82618268016314 0.998833505952497 -5.82618268016314 0.0482869276994709 72.6259710964699 
! Gamma         0                18437.8188875518 0                18643.7967428764 
! Port Impedance         50               0                50               0                
22.55                          0.0493081753838613 95.3376432442095 0.998783612120559 -5.95692070821132 0.998783612120281 -5.95692070821131 0.0493081753838615 72.7485153393675 
! Gamma         0                18853.0645718639 0                19063.6816351701 
! Port Impedance         50               0                50               0                
23.0466666666667               0.0503289291666186 94.9640299849176 0.998732696414858 -6.08762848468606 0.998732696415707 -6.08762848468607 0.0503289291666186 72.8607130457101 
! Gamma         0                19268.3105638355 0                19483.5668577924 
! Port Impedance         50               0                50               0                
23.5433333333333               0.0513493385630905 94.6034263143922 0.998680752507613 -6.21829709317882 0.998680752507574 -6.21829709317882 0.0513493385630906 72.9599794992501 
! Gamma         0                19683.5568689895 0                19903.4524182368 
! Port Impedance         50               0                50               0                
24.04                          0.0523693155455528 94.2556870135928 0.998627785908992 -6.34892381037111 0.998627785908786 -6.34892381037108 0.0523693155455529 73.0464653656645 
! Gamma         0                20098.8034945663 0                20323.3383240336 
! Port Impedance         50               0                50               0                
24.5366666666667               0.0533884976870857 93.9164911568819 0.998573817158412 -6.47951767402158 0.998573817158807 -6.47951767402158 0.0533884976870857 73.124473495075  
! Gamma         0                20514.0504482609 0                20743.2245812818 
! Port Impedance         50               0                50               0                
25.0333333333333               0.0544068560400123 93.5859611833887 0.998518850105497 -6.61007652025752 0.998518850105335 -6.6100765202575 0.0544068560400123 73.1938857760965 
! Gamma         0                20929.2977361487 0                21163.1111995259 
! Port Impedance         50               0                50               0                
25.53                          0.0554246083326913 93.2690183010662 0.998462875018329 -6.74058309702905 0.99846287501963 -6.74058309702911 0.0554246083326915 73.2498155048746 
! Gamma         1.09620299729803E-20 21344.5453649287 0                21582.9981835996 
! Port Impedance         50               0                50               0                
26.0266666666667               0.0564413060859519 92.9591408595631 0.998405918936139 -6.87105426440899 0.998405918936737 -6.87105426440902 0.056441306085952 73.298750611619  
! Gamma         3.01692263835289E-21 21759.7933419253 0                22002.8855408695 
! Port Impedance         50               0                50               0                
26.5233333333333               0.0574568959601941 92.6559757091837 0.99834798798162 -7.00148957950693 0.99834798798129 -7.00148957950692 0.0574568959601941 73.3410451318028 
! Gamma         3.76850001113138E-21 22175.0416730764 0                22422.7732807103 
! Port Impedance         50               0                50               0                
27.02                          0.0584713184201419 92.3591544363903 0.998289088852799 -7.13188852987335 0.998289088852457 -7.13188852987336 0.058471318420142 73.3770685038624 
! Gamma         1.82603255831496E-21 22590.290365127  0                22842.6614087061 
! Port Impedance         50               0                50               0                
27.5166666666667               0.0594845194175402 92.0683388587259 0.998229228157836 -7.26225068461224 0.998229228158913 -7.26225068461221 0.0594845194175404 73.4071597720491 
! Gamma         1.96544684315973E-21 23005.5394251099 0                23262.5499324183 
! Port Impedance         50               0                50               0                
28.0133333333333               0.0604964485025469 91.7832299453605 0.99816841250259 -7.39257556819116 0.998168412503229 -7.39257556819118 0.0604964485025469 73.4316189182572 
! Gamma         1.13365500625846E-22 23420.7888597144 0                23682.4388590828 
! Port Impedance         50               0                50               0                
28.51                          0.0615070581367809 91.5035425343076 0.998106648510109 -7.5228627892106 0.998106648509384 -7.52286278921058 0.0615070581367809 73.4507318872709 
! Gamma         1.94450524360665E-21 23836.0386757555 0                24102.328196858  
! Port Impedance         50               0                50               0                
29.0066666666667               0.0625152817663997 91.2258571986353 0.998044006818207 -7.65309959142951 0.998044006818134 -7.65309959142951 0.0625152817663996 73.467943618506  
! Gamma         5.66191444989918E-21 24251.2888807922 0                24522.2179506599 
! Port Impedance         50               0                50               0                
29.5033333333333               0.0635211007973596 90.950154685141  0.997980495678176 -7.78328520315837 0.997980495677608 -7.78328520315835 0.0635211007973597 73.483274908542  
! Gamma         3.90789083298072E-21 24666.5394800998 0                24942.10813061   
! Port Impedance         50               0                50               0                
30                             0.0645254358679451 90.6792196957105 0.99791606266556 -7.9134307497751 0.997916062665678 -7.91343074977509 0.0645254358679451 73.4939188047393 
! Gamma         0                25081.7904808174 0                25361.9987420584 
! Port Impedance         50               0                50               0                
