! Touchstone file exported from HFSS 2026.1.0
!        Generated:      11:49:43 AM Aug 24, 2026
!        Design:         HFSSDesign_Kinetic_debug
!        Project:        kinetic_stub_sweep
!        Setup:          Setup1
!        Solution:       Sweep_discrete_debug
!
! Variables:
!        stub_length = 2.5um
!
# GHz S MA R 50.000000
! Terminal data exported
! Port[1] = Port1
! Port[2] = Port2
0.2                            0.0124318244440852 -0.509680638505236 0.999922721884605 -0.0848770773760178 0.999922721884479 -0.0848770773760181 0.0124318244440849 -179.660073516247 
! Gamma         0                173.390320234158 2.0204056631064E-32 171.041419714197 
! Port Impedance         50               0                50               0                
0.696666666666667              0.0124354422476941 -1.77529585518238 0.999922676898434 -0.295656556309502 0.999922676898808 -0.295656556309502 0.0124354422476937 -178.816017257437 
! Gamma         0                603.976285790409 0                595.794281948237 
! Port Impedance         50               0                50               0                
1.19333333333333               0.012442997424146 -3.04127947764342 0.999922582911209 -0.506448474681378 0.999922582910489 -0.506448474681379 0.0124429974241466 -177.971617471719 
! Gamma         2.27154453901872E-31 1034.56226344862 6.21974667053355E-32 1020.54715507349 
! Port Impedance         50               0                50               0                
1.69                           0.012454693425722 -4.30777368708675 0.999922437297754 -0.717260772679062 0.999922437297945 -0.717260772679061 0.0124546934257216 -177.126747858271 
! Gamma         6.05189220833042E-32 1465.1482618365  5.96492168202522E-31 1445.3000468545  
! Port Impedance         50               0                50               0                
2.18666666666667               0.0124704069432611 -5.57505348072201 0.999922241452351 -0.928102362148309 0.999922241451927 -0.928102362148312 0.012470406943261 -176.281151243575 
! Gamma         8.57019059097024E-41 1895.73428958165 4.50643461341349E-32 1870.05296505571 
! Port Impedance         50               0                50               0                
2.68333333333333               0.0124897088335322 -6.84355646836772 0.99992200054441 -1.13898137118666 0.999922000544929 -1.13898137118666 0.0124897088335323 -175.434406274006 
! Gamma         1.06212430959898E-31 2326.3203553116  1.85843981582712E-30 2294.80591744151 
! Port Impedance         50               0                50               0                
3.18                           0.0125141114239143 -8.11293429795244 0.999921695442202 -1.34990676560554 0.999921695441465 -1.34990676560554 0.0125141114239146 -174.586879233259 
! Gamma         8.07413204899345E-31 2756.90646765383 1.34439582411471E-30 2719.5589117762  
! Port Impedance         50               0                50               0                
3.67666666666667               0.0125427281687571 -9.38374055228397 0.99992133689139 -1.56088708139762 0.99992133689081 -1.56088708139762 0.0125427281687573 -173.738033610511 
! Gamma         1.26466860104537E-30 3187.49263523561 6.43358437340579E-32 3144.31195582394 
! Port Impedance         50               0                50               0                
4.17333333333333               0.0125752596735571 -10.6564153797507 0.999920928296379 -1.77193086246381 0.99992092829543 -1.77193086246381 0.0125752596735575 -172.887446345177 
! Gamma         5.41727845186634E-30 3618.07886668409 0                3569.06505734875 
! Port Impedance         50               0                50               0                
4.67                           0.0126120730078973 -11.930920342082 0.999920464644784 -1.98304668259806 0.999920464643787 -1.98304668259806 0.0126120730078971 -172.035173023114 
! Gamma         2.4077032969922E-29 4048.66517062628 0                3993.81822734752 
! Port Impedance         50               0                50               0                
5.16666666666667               0.0126535081182635 -13.2072243405102 0.999919941161297 -2.19424334801861 0.999919941161586 -2.19424334801861 0.0126535081182635 -171.181262355527 
! Gamma         0                4479.25155676427 0                4418.57146617474 
! Port Impedance         50               0                50               0                
5.66333333333333               0.0126994518582938 -14.4855935371253 0.999919358709413 -2.40552949681939 0.999919358710068 -2.40552949681939 0.0126994518582938 -170.325465456513 
! Gamma         0                4909.83803019473 0                4843.32478486758 
! Port Impedance         50               0                50               0                
6.16                           0.0127501485478388 -15.7659421465956 0.999918713552087 -2.61691382584167 0.999918713552434 -2.61691382584167 0.0127501485478387 -169.467885505088 
! Gamma         0                5340.42460428352 0                5268.07819264367 
! Port Impedance         50               0                50               0                
6.65666666666667               0.0128055958185606 -17.0484225244223 0.999918004995949 -2.82840507946397 0.999918004996601 -2.82840507946397 0.0128055958185602 -168.608387634505 
! Gamma         0                5771.01128542437 0                5692.8316990854  
! Port Impedance         50               0                50               0                
7.15333333333333               0.0128658858752164 -18.3331485778773 0.999917231064848 -3.040012152823  0.999917231065101 -3.040012152823  0.0128658858752159 -167.746875727768 
! Gamma         0                6201.5980789592  0                6117.5853083241  
! Port Impedance         50               0                50               0                
7.65                           0.0129313550524353 -19.6197794657335 0.999916386533099 -3.25174378906478 0.999916386532198 -3.25174378906478 0.0129313550524352 -166.883708112396 
! Gamma         0                6632.18500038669 0                6542.33902957715 
! Port Impedance         50               0                50               0                
8.14666666666667               0.0130019149555945 -20.9085941005372 0.999915471531625 -3.46360889045463 0.999915471530801 -3.46360889045462 0.0130019149555949 -166.018623680373 
! Gamma         0                7062.77205128242 0                6967.0928727121  
! Port Impedance         50               0                50               0                
8.64333333333333               0.0130780590806599 -22.1990108570536 0.999914478529374 -3.67561640792676 0.999914478527387 -3.67561640792675 0.0130780590806596 -165.152221958799 
! Gamma         0                7493.35924775072 0                7391.84683800112 
! Port Impedance         50               0                50               0                
9.14                           0.0131595673441502 -23.4914221197861 0.999913409144436 -3.88777531261028 0.999913409144902 -3.88777531261028 0.01315956734415 -164.284128505434 
! Gamma         0                7923.94659075269 0                7816.60094226671 
! Port Impedance         50               0                50               0                
9.63666666666667               0.013246859805273 -24.7852576388037 0.99991225650298 -4.10009461289081 0.999912256503399 -4.10009461289083 0.0132468598052732 -163.414931586978 
! Gamma         0                8354.53409531057 0                8241.35518907987 
! Port Impedance         50               0                50               0                
10.1333333333333               0.0133400497776822 -26.0804084680428 0.999911017576989 -4.312583408964  0.999911017577069 -4.31258340896402 0.0133400497776822 -162.544758349885 
! Gamma         0                8785.1217670238  0                8666.10958601406 
! Port Impedance         50               0                50               0                
10.63                          0.0134412350614454 -27.3739463388012 0.999909662519685 -4.525251394349  0.999909662519477 -4.52525139434898 0.0134412350614448 -161.676556449895 
! Gamma         0                9215.7096119003  0                9090.86413785395 
! Port Impedance         50               0                50               0                
11.1266666666667               0.0135483148811676 -28.6690183313715 0.999908217369743 -4.73810758006697 0.999908217370086 -4.73810758006696 0.0135483148811672 -160.807196828762 
! Gamma         0                9646.29764407966 0                9515.61886124393 
! Port Impedance         50               0                50               0                
11.6233333333333               0.0136598604835294 -29.9692956169   0.999906699753172 -4.95116202130175 0.999906699753462 -4.95116202130178 0.0136598604835292 -159.933028425703 
! Gamma         0                10076.8858686208 0                9940.3737573269  
! Port Impedance         50               0                50               0                
12.12                          0.0137781316461141 -31.2698664986113 0.999905077038813 -5.1644231979459 0.999905077039161 -5.16442319794593 0.0137781316461143 -159.058979897281 
! Gamma         0                10507.4742949247 0                10365.1288346452 
! Port Impedance         50               0                50               0                
12.6166666666667               0.0139033303048542 -32.5703405455569 0.999903344031819 -5.37790060309081 0.999903344032239 -5.37790060309081 0.0139033303048544 -158.185460660625 
! Gamma         0                10938.0629310604 0                10789.8841004561 
! Port Impedance         50               0                50               0                
13.1133333333333               0.0140356888102612 -33.8702254745849 0.999901494867852 -5.59160370582036 0.999901494868508 -5.59160370582037 0.0140356888102609 -157.312981937054 
! Gamma         0                11368.6517868868 0                11214.639562275  
! Port Impedance         50               0                50               0                
13.61                          0.0141754177696764 -35.1690561186137 0.999899523717519 -5.80554214583049 0.999899523718053 -5.80554214583047 0.0141754177696769 -156.442028173046 
! Gamma         0                11799.2408711958 0                11639.3952306117 
! Port Impedance         50               0                50               0                
14.1066666666667               0.0143227363420997 -36.4663491782637 0.999897424351183 -6.01972556288482 0.999897424350727 -6.01972556288483 0.0143227363420996 -155.573101947506 
! Gamma         0                12229.8301909194 0                12064.1511121726 
! Port Impedance         50               0                50               0                
14.6033333333333               0.0144778507679119 -37.7616540379803 0.999895190425902 -6.23416376378733 0.999895190426194 -6.23416376378733 0.0144778507679121 -154.706673489596 
! Gamma         0                12660.4197558966 0                12488.9072138516 
! Port Impedance         50               0                50               0                
15.1                           0.0146383908144595 -39.0627085127697 0.999892853017427 -6.44886843759771 0.999892853016459 -6.44886843759773 0.0146383908144589 -153.835028362424 
! Gamma         0                13091.0095745352 0                12913.6635442294 
! Port Impedance         50               0                50               0                
15.5966666666667               0.0148072690976357 -40.361023265649 0.999890366380887 -6.66384790440616 0.999890366381454 -6.66384790440614 0.0148072690976359 -152.966672543165 
! Gamma         0                13521.5996550167 0                13338.4201102404 
! Port Impedance         50               0                50               0                
16.0933333333333               0.0149847486344153 -41.6559363628584 0.999887722350577 -6.87911222808202 0.999887722351517 -6.87911222808203 0.0149847486344157 -152.102288093307 
! Gamma         0                13952.1900062273 0                13763.1769187813 
! Port Impedance         50               0                50               0                
16.59                          0.015171082397582 -42.9467783365724 0.999884912507076 -7.0946716022042 0.999884912506679 -7.0946716022042 0.0151710823975829 -151.242564867834 
! Gamma         0                14382.780638413  0                14187.9339793951 
! Port Impedance         50               0                50               0                
17.0866666666667               0.0153665006649814 -44.2329738896168 0.999881928358255 -7.31053627283405 0.999881928358146 -7.31053627283405 0.015366500664982 -150.388098656052 
! Gamma         0                14813.3715572114 0                14612.6912999165 
! Port Impedance         50               0                50               0                
17.5833333333333               0.015571291273452 -45.5137553029638 0.999878760094518 -7.52671665014608 0.999878760094445 -7.52671665014606 0.0155712912734528 -149.539677997329 
! Gamma         0                15243.9627736643 0                15037.4488869285 
! Port Impedance         50               0                50               0                
18.08                          0.0157857043767278 -46.7884977923997 0.999875398005698 -7.74322325091089 0.999875398005975 -7.7432232509109 0.0157857043767281 -148.69794870942 
! Gamma         0                15674.5542938916 0                15462.2067469725 
! Port Impedance         50               0                50               0                
18.5766666666667               0.016009971010291 -48.056556579009 0.999871832200071 -7.96006665700673 0.999871832201195 -7.96006665700671 0.0160099710102914 -147.863576735007 
! Gamma         0                16105.1461288849 0                15886.9648939013 
! Port Impedance         50               0                50               0                
19.0733333333333               0.0162444095408787 -49.3171491676175 0.999868050874199 -8.17725768400769 0.999868050873898 -8.17725768400772 0.0162444095408788 -147.037366200398 
! Gamma         0                16535.7382861723 0                16311.7233271077 
! Port Impedance         50               0                50               0                
19.57                          0.0164892287023137 -50.569724394671 0.999864043426136 -8.39480714116648 0.999864043426478 -8.39480714116649 0.0164892287023143 -146.219889887661 
! Gamma         0                16966.3307747439 0                16736.4820607567 
! Port Impedance         50               0                50               0                
20.0666666666667               0.0167447296866425 -51.8135413753653 0.999859797185824 -8.61272607624279 0.999859797185068 -8.61272607624276 0.0167447296866422 -145.411910777121 
! Gamma         0                17396.9236028041 0                17161.2410976233 
! Port Impedance         50               0                50               0                
20.5633333333333               0.017011130262322 -53.0480737101726 0.999855300254801 -8.83102563512611 0.999855300254381 -8.83102563512614 0.0170111302623219 -144.61397756008 
! Gamma         0                17827.5167788898 0                17586.0004501032 
! Port Impedance         50               0                50               0                
21.06                          0.0172887241150828 -54.2726083803144 0.999850538840583 -9.04971708383668 0.999850538839252 -9.04971708383669 0.0172887241150831 -143.826825787358 
! Gamma         0                18258.1103130525 0                18010.7601228888 
! Port Impedance         50               0                50               0                
21.5566666666667               0.0175777504443169 -55.4866300958734 0.999845499409418 -9.26881187503652 0.999845499409467 -9.26881187503648 0.017577750444317 -143.050993654199 
! Gamma         0                18688.7042120767 0                18435.5201246714 
! Port Impedance         50               0                50               0                
22.0533333333333               0.0178784688575161 -56.6895646540958 0.999840167402529 -9.48832157672358 0.999840167402322 -9.48832157672357 0.0178784688575159 -142.28707849935 
! Gamma         0                19119.2984853199 0                18860.2804635166 
! Port Impedance         50               0                50               0                
22.55                          0.0181911372440132 -57.8808803707177 0.99983452757235 -9.70825793001782 0.999834527572296 -9.70825793001782 0.0181911372440136 -141.535635489319 
! Gamma         0                19549.8931413825 0                19285.0411467007 
! Port Impedance         50               0                50               0                
23.0466666666667               0.0185160186785174 -59.0600622019643 0.999828563831087 -9.92863284646892 0.99982856383085 -9.92863284646889 0.0185160186785168 -140.797203490974 
! Gamma         0                19980.488188845  0                19709.8021809333 
! Port Impedance         50               0                50               0                
23.5433333333333               0.0188533451976785 -60.2267084048291 0.999822259891948 -10.1494583762816 0.999822259891363 -10.1494583762816 0.0188533451976789 -140.072208347733 
! Gamma         0                20411.0836358973 0                20134.5635771252 
! Port Impedance         50               0                50               0                
24.04                          0.0192033942808822 -61.3803290237463 0.999815597822136 -10.3707467446095 0.999815597821793 -10.3707467446095 0.0192033942808821 -139.361164465471 
! Gamma         0                20841.6794913671 0                20559.3253392691 
! Port Impedance         50               0                50               0                
24.5366666666667               0.0195669601122209 -62.5191367829377 0.999808548709265 -10.5925109263618 0.999808548709106 -10.5925109263619 0.019566960112221 -138.665885069787 
! Gamma         0                21272.2757641991 0                20984.0874772829 
! Port Impedance         50               0                50               0                
25.0333333333333               0.0199479619462766 -63.6332619401217 0.999801019610187 -10.8147673144011 0.999801019610808 -10.8147673144011 0.0199479619462757 -137.996272688681 
! Gamma         0                21702.8724635043 0                21408.8499989486 
! Port Impedance         50               0                50               0                
25.53                          0.0203424147389687 -64.7332809079479 0.999793071671605 -11.0375247388348 0.999793071671649 -11.0375247388348 0.0203424147389681 -137.34176856972 
! Gamma         0                22133.4695976457 0                21833.6129115897 
! Port Impedance         50               0                50               0                
26.0266666666667               0.0207505598683513 -65.819000197415 0.999784683952119 -11.2607961769752 0.999784683952029 -11.2607961769752 0.0207505598683513 -136.702592156533 
! Gamma         0                22564.0671726649 0                22258.3762230169 
! Port Impedance         50               0                50               0                
26.5233333333333               0.0211726621682041 -66.8901401037238 0.99977583406321 -11.4845947967852 0.999775834063134 -11.4845947967852 0.021172662168204 -136.079049489846 
! Gamma         0                22994.6652007416 0                22683.1399401197 
! Port Impedance         50               0                50               0                
27.02                          0.0216089603883857 -67.9465774461974 0.999766499154159 -11.708933982764 0.99976649915413 -11.708933982764 0.021608960388386 -135.471290519331 
! Gamma         0                23425.263689016  0                23107.9040722519 
! Port Impedance         50               0                50               0                
27.5166666666667               0.0220597150060309 -68.9881600126193 0.999756654878089 -11.9338273343084 0.999756654878915 -11.9338273343084 0.0220597150060299 -134.879494655998 
! Gamma         0                23855.8626454764 0                23532.6686248491 
! Port Impedance         50               0                50               0                
28.0133333333333               0.0225251703648222 -70.0147974837369 0.999746276161887 -12.1592886488098 0.999746276162361 -12.1592886488098 0.0225251703648216 -134.303779813881 
! Gamma         0                24286.4620798134 0                23957.4336077217 
! Port Impedance         50               0                50               0                
28.51                          0.0230055756633222 -71.0264411059672 0.999735336720856 -12.3853319397463 0.999735336720892 -12.3853319397463 0.0230055756633227 -133.744222773525 
! Gamma         0                24717.0619998918 0                24382.199028786  
! Port Impedance         50               0                50               0                
29.0066666666667               0.0235011998151906 -72.0230139985356 0.999723808662931 -12.6119714975305 0.999723808662661 -12.6119714975304 0.0235011998151906 -133.200928996527 
! Gamma         0                25147.6624147315 0                24806.9648936308 
! Port Impedance         50               0                50               0                
29.5033333333333               0.024012287053868 -73.0045433243653 0.999711663466612 -12.8392217826426 0.999711663465874 -12.8392217826426 0.0240122870538685 -132.673900240919 
! Gamma         0                25578.2633327746 0                25231.7312116106 
! Port Impedance         50               0                50               0                
30                             0.0245391015579966 -73.9710348142339 0.999698870908514 -13.0670975347812 0.999698870907483 -13.0670975347812 0.0245391015579965 -132.163160255328 
! Gamma         0                26008.8647628618 0                25656.4979901414 
! Port Impedance         50               0                50               0                
