! Touchstone file exported from HFSS 2026.1.0
!        Generated:      11:51:05 AM Aug 24, 2026
!        Design:         HFSSDesign_Kinetic_debug
!        Project:        kinetic_stub_sweep
!        Setup:          Setup1
!        Solution:       Sweep_lowfreq
!
! Variables:
!        stub_length = 2.5um
!
# GHz S MA R 50.000000
! Terminal data exported
! Port[1] = Port1
! Port[2] = Port2
0.01                           0.00982532119014493 179.871187295095 0.999951730366787 -0.00264831502141173 0.999951730366767 -0.00264831502141173 0.00982532119014468 0.123516074862422 
! Gamma         1.58204793961285E-39 8.36051394919549 6.70526727632931E-32 8.45391043557015 
! Port Impedance         50               0                50               0                
0.02                           0.00982539246879042 179.742121938403 0.999951729666408 -0.00529411092839394 0.999951729666402 -0.00529411092839395 0.0098253924687906 0.247289839739795 
! Gamma         6.31455567211327E-39 16.7210278984463 7.94565908359912E-39 16.9078208711998 
! Port Impedance         50               0                50               0                
0.03                           0.00982551141004874 179.613258845571 0.999951728497678 -0.00794188959259546 0.999951728497716 -0.0079418895925954 0.00982551141004879 0.370857375243976 
! Gamma         0                25.0815418478076 4.50299424206573E-40 25.3617313069483 
! Port Impedance         50               0                50               0                
0.04                           0.00982567839842452 179.484312347477 0.999951726856848 -0.0105888040184273 0.999951726856866 -0.0105888040184274 0.00982567839842544 0.494510044486547 
! Gamma         0                33.4420557973348 1.31348416000798E-39 33.8156417428752 
! Port Impedance         50               0                50               0                
0.05                           0.00982589352538568 179.355243797038 0.999951724742962 -0.0132344583528661 0.999951724742966 -0.0132344583528661 0.00982589352538578 0.618287286256102 
! Gamma         1.0904037963734E-35 41.8025697470831 4.0178947060392E-34 42.26955217904   
! Port Impedance         50               0                50               0                
0.06                           0.00982615692973231 179.226108940506 0.999951722154624 -0.015879393302843 0.999951722154616 -0.015879393302843 0.00982615692973325 0.74213227288835 
! Gamma         1.14675376632182E-38 50.1630836971078 2.76635469724401E-38 50.723462615502  
! Port Impedance         50               0                50               0                
0.07                           0.00982646767231457 179.097202704134 0.999951719101037 -0.0185265238088536 0.999951719101003 -0.0185265238088536 0.00982646767231418 0.865744248248729 
! Gamma         5.34977142777399E-38 58.5235976474642 5.94522927025427E-33 59.1773730523209 
! Port Impedance         50               0                50               0                
0.08                           0.00982682585122902 178.968422169282 0.999951715581145 -0.0211748164985467 0.999951715581159 -0.0211748164985468 0.00982682585122916 0.989228197720815 
! Gamma         5.69564360142487E-33 66.8841115982075 2.09181613422588E-32 67.6312834895559 
! Port Impedance         50               0                50               0                
0.09                           0.00982723309980306 178.839245291786 0.999951711578921 -0.0238190772921483 0.999951711578908 -0.0238190772921483 0.00982723309980368 1.11311655362994 
! Gamma         1.84417819061313E-38 75.2446255493931 3.85026332231041E-37 76.0851939272666 
! Port Impedance         50               0                50               0                
0.1                            0.00982768689871353 178.710428125027 0.99995170711903 -0.026466798872  0.999951707118988 -0.026466798872  0.00982768689871348 1.23663827722864 
! Gamma         9.88137984013282E-33 83.6051395010763 2.49537827454758E-34 84.5391043655125 
! Port Impedance         50               0                50               0                
