! Touchstone file exported from HFSS 2026.1.0
!        Generated:      11:51:45 AM Aug 24, 2026
!        Design:         HFSSDesign_Kinetic_debug
!        Project:        kinetic_stub_sweep
!        Setup:          Setup1
!        Solution:       Sweep_lowfreq
!
! Variables:
!        stub_length = 2.5um
!
# GHz S MA R 50.000000
! Terminal data exported
! Port[1] = Port1
! Port[2] = Port2
0.01                           0.0128313946502852 179.908760824978 0.999917674266905 -0.0027800636684876 0.999917674266898 -0.0027800636684876 0.0128313946502846 0.0856790476851936 
! Gamma         2.42408398782124E-42 8.4353377454757  0                8.58810676706574 
! Port Impedance         50               0                50               0                
0.02                           0.0128314408947437 179.817128040702 0.999917673673473 -0.00555500558459192 0.999917673673467 -0.00555500558459192 0.0128314408947437 0.171761948129227 
! Gamma         0                16.8706754910097 0                17.1762135341974 
! Port Impedance         50               0                50               0                
0.03                           0.0128315182479515 179.725022631686 0.999917672680825 -0.00832379304968341 0.99991767268084 -0.0083237930496834 0.0128315182479506 0.258329782214418 
! Gamma         0                25.3060132366603 0                25.7643203014609 
! Port Impedance         50               0                50               0                
0.04                           0.0128316260270899 179.633419362885 0.999917671297739 -0.0110990908255243 0.999917671297747 -0.0110990908255242 0.0128316260270895 0.344382455463647 
! Gamma         6.83949272122245E-38 33.7413509824858 0                34.3524270689223 
! Port Impedance         50               0                50               0                
0.05                           0.0128317651971348 179.541544404438 0.999917669511819 -0.0138708346583705 0.999917669511798 -0.0138708346583705 0.0128317651971347 0.430713926244887 
! Gamma         0                42.1766887285445 0                42.9405338366473 
! Port Impedance         50               0                50               0                
0.06                           0.0128319344464502 179.450052252051 0.999917667339835 -0.016647526782558 0.99991766733986 -0.016647526782558 0.0128319344464498 0.51665269438391 
! Gamma         0                50.6120264748947 0                51.528640604702  
! Port Impedance         50               0                50               0                
0.07                           0.0128321345452262 179.358404674573 0.999917664771949 -0.0194221653345651 0.999917664771975 -0.0194221653345651 0.0128321345452255 0.602750994757439 
! Gamma         0                59.0473642215948 0                60.1167473731523 
! Port Impedance         50               0                50               0                
0.08                           0.0128323657291245 179.266654801817 0.999917661805092 -0.0221954351719082 0.999917661805124 -0.0221954351719082 0.0128323657291249 0.68895432783889 
! Gamma         0                67.4827019687029 0                68.7048541420641 
! Port Impedance         50               0                50               0                
0.09                           0.0128326277038109 179.1749287951   0.999917658443036 -0.0249689707689712 0.999917658443047 -0.0249689707689712 0.0128326277038111 0.775133263362489 
! Gamma         0                75.9180397162774 0                77.2929609115034 
! Port Impedance         50               0                50               0                
0.1                            0.0128329208244823 179.083220566988 0.999917654681173 -0.0277426871158578 0.999917654681188 -0.0277426871158578 0.0128329208244827 0.86129405878024 
! Gamma         0                84.3533774643766 0                85.881067681536  
! Port Impedance         50               0                50               0                
