! Touchstone file exported from HFSS 2026.1.0
!        Generated:      11:53:17 AM Aug 24, 2026
!        Design:         HFSSDesign_Kinetic_debug
!        Project:        kinetic_stub_sweep
!        Setup:          Setup1
!        Solution:       Sweep_lowfreq
!
! Variables:
!        stub_length = 2.5um
!
# GHz S MA R 50.000000
! Terminal data exported
! Port[1] = Port1
! Port[2] = Port2
0.01                           0.0113934840860046 179.990618448633 0.999935092153694 -0.00381835257037195 0.99993509215366 -0.00381835257037196 0.0113934840860041 0.00174484622672698 
! Gamma         0                8.347117570953   3.21683369850742E-32 8.43196320655709 
! Port Impedance         50               0                50               0                
0.02                           0.0113934841045443 179.98047842578  0.999935092153464 -0.00762796390326874 0.999935092153468 -0.00762796390326877 0.0113934841045435 0.0042656464130837 
! Gamma         0                16.6942351419608 3.71078626394725E-34 16.8639264131727 
! Port Impedance         50               0                50               0                
0.03                           0.0113934841175598 179.970680849121 0.999935092153333 -0.0114415218332323 0.999935092153301 -0.0114415218332323 0.0113934841175599 0.00643610721290395 
! Gamma         0                25.041352713078  1.1159440636958E-41 25.2958896199054 
! Port Impedance         50               0                50               0                
0.04                           0.0113934841024331 179.960892780794 0.999935092153492 -0.0152551893094019 0.999935092153487 -0.0152551893094019 0.0113934841024329 0.00859684058758989 
! Gamma         0                33.3884702843595 0                33.7278528268137 
! Port Impedance         50               0                50               0                
0.05                           0.011393484009715 179.951409146001 0.99993509215454 -0.0190723652691332 0.999935092154552 -0.0190723652691332 0.011393484009715 0.0104461234611231 
! Gamma         0                41.7355878558601 4.33828463465512E-39 42.1598160339561 
! Port Impedance         50               0                50               0                
0.06                           0.0113934840166966 179.941192253201 0.999935092154468 -0.0228810905173499 0.999935092154465 -0.0228810905173499 0.0113934840166965 0.0130455657640277 
! Gamma         0                50.0827054276344 0                50.5917792413913 
! Port Impedance         50               0                50               0                
0.07                           0.0113934840721171 179.931491506124 0.999935092153832 -0.0266957641559127 0.999935092153838 -0.0266957641559126 0.0113934840721163 0.0151169655641207 
! Gamma         0                58.4298229997372 0                59.0237424491776 
! Port Impedance         50               0                50               0                
0.08                           0.0113934843330949 179.92170574921  0.999935092150867 -0.0305094579679187 0.999935092150856 -0.0305094579679187 0.0113934843330949 0.0172753348543261 
! Gamma         0                66.7769405722233 0                67.4557056573737 
! Port Impedance         50               0                50               0                
0.09                           0.011393484593108 179.911775221723 0.999935092147907 -0.0343214832192469 0.99993509214789 -0.0343214832192469 0.0113934845931084 0.0195818118387831 
! Gamma         0                75.1240581451474 8.40390911555557E-34 75.887668866038  
! Port Impedance         50               0                50               0                
0.1                            0.011393484648583 179.902048097145 0.999935092147274 -0.0381358525289138 0.999935092147259 -0.0381358525289138 0.0113934846485837 0.0216801977974664 
! Gamma         0                83.4711757185642 1.48489807519273E-33 84.3196320752291 
! Port Impedance         50               0                50               0                
