! Touchstone file exported from HFSS 2026.1.0
!        Generated:      11:52:47 AM Aug 24, 2026
!        Design:         HFSSDesign_Kinetic_debug
!        Project:        kinetic_stub_sweep
!        Setup:          Setup1
!        Solution:       Sweep_lowfreq
!
! Variables:
!        stub_length = 2.5um
!
# GHz S MA R 50.000000
! Terminal data exported
! Port[1] = Port1
! Port[2] = Port2
0.01                           0.000921038045227003 0.283935630672851 0.999999575844369 -0.00359139918950067 0.99999957584437 -0.00359139918950067 0.000921038045226981 179.708881570948 
! Gamma         0                8.38416531455553 0                8.37868436161586 
! Port Impedance         50               0                50               0                
0.02                           0.00092107445922604 0.578058684057172 0.999999575810829 -0.0071734098494365 0.999999575810831 -0.00717340984943648 0.000921074459225598 179.407594496244 
! Gamma         0                16.7683306291674 0                16.7573687232877 
! Port Impedance         50               0                50               0                
0.03                           0.000921132907872731 0.860557916607709 0.999999575756991 -0.0107660899039611 0.999999575756996 -0.0107660899039611 0.000921132907872683 179.117909903584 
! Gamma         0                25.1524959438918 0                25.1360530850715 
! Port Impedance         50               0                50               0                
0.04                           0.00092121594165799 1.14801896431996 0.999999575680504 -0.0143541623106006 0.999999575680504 -0.0143541623106006 0.000921215941657749 178.823272711059 
! Gamma         0                33.5366612587852 0                33.5147374470234 
! Port Impedance         50               0                50               0                
0.05                           0.00092132335678309 1.43686649754291 0.999999575581549 -0.0179409027712392 0.999999575581545 -0.0179409027712392 0.000921323356783499 178.527251696915 
! Gamma         0                41.9208265739039 5.29664167838415E-37 41.8934218091992 
! Port Impedance         50               0                50               0                
0.06                           0.000921453569561152 1.72323260197293 0.999999575461568 -0.0215298588648566 0.999999575461571 -0.0215298588648566 0.000921453569561781 178.233707680299 
! Gamma         0                50.3049918893041 8.54552284910026E-39 50.272106171655  
! Port Impedance         50               0                50               0                
0.07                           0.000921607687541522 2.01002642571294 0.999999575319543 -0.025118338435328 0.999999575319546 -0.025118338435328 0.000921607687541347 177.939736897416 
! Gamma         0                58.6891572050422 0                58.6507905344468 
! Port Impedance         50               0                50               0                
0.08                           0.000921785463966425 2.29686565485619 0.999999575155688 -0.0287066799284097 0.999999575155689 -0.0287066799284096 0.000921785463965932 177.645720985286 
! Gamma         0                67.0733225211745 8.10052672977289E-39 67.0294748976305 
! Port Impedance         50               0                50               0                
0.09                           0.00092198679036674 2.58373216515455 0.999999574970087 -0.0322948866013877 0.999999574970091 -0.0322948866013877 0.000921986790366795 177.351678061643 
! Gamma         0                75.4574878377573 1.44566513288466E-35 75.4081592612623 
! Port Impedance         50               0                50               0                
0.1                            0.000922212461954026 2.87137539070454 0.999999574761999 -0.0358822529489969 0.999999574761995 -0.0358822529489968 0.000922212461953798 177.056860103397 
! Gamma         0                83.8416531548469 0                83.7868436253979 
! Port Impedance         50               0                50               0                
