! Touchstone file exported from HFSS 2026.1.0
!        File:           C:/Users/urbaneja/Ansys/Project1.aedt
!        Generated:      01:16:41 PM Aug 10, 2026
!        Design:         HFSSDesign_Kinetic_debug
!        Project:        Project1
!        Setup:          Setup1
!        Solution:       Sweep_discrete_debug
!
! Variables:
!        port_below = 1um
!        port_width = 30um
!        stub_length = 3.9um
!
# GHz S MA R 50.000000
! Terminal data exported
! Port[1] = Port1
! Port[2] = Port2
0.2                            0.00224906412118889 171.375870279313 0.999997470852086 -0.0587154295880777 0.999997470852097 -0.0587154295880776 0.00224906412118808 8.50669886151424 
! Gamma         5.16256102321087E-37 168.823540232393 0                169.005313720601 
! Port Impedance         50               0                50               0                
0.696666666666667              0.0025114956218627 152.111993364978 0.999996846190133 -0.204525243910868 0.999996846189662 -0.204525243910868 0.00251149562186285 27.4789561471981 
! Gamma         3.20281112523659E-33 588.068668176063 0                588.701845848517 
! Port Impedance         50               0                50               0                
1.19333333333333               0.002990118428354 137.705882821796 0.999995529585657 -0.350334581600174 0.999995529586143 -0.350334581600174 0.00299011842835381 41.5934480150068 
! Gamma         1.15852150597567E-30 1007.3138062004  0                1008.39838812977 
! Port Impedance         50               0                50               0                
1.69                           0.00359960117592229 127.664715233793 0.999993521414749 -0.496143911358066 0.999993521414653 -0.496143911358067 0.00359960117592253 51.3429969434857 
! Gamma         1.53032701226232E-31 1426.5589614921  0                1428.09494780283 
! Port Impedance         50               0                50               0                
2.18666666666667               0.00428429325767227 120.629722236511 0.999990822373568 -0.641952876892506 0.999990822373486 -0.641952876892512 0.00428429325767213 58.0863720097068 
! Gamma         0                1845.80414123776 2.91253269624957E-45 1847.79153210612 
! Port Impedance         50               0                50               0                
2.68333333333333               0.00501342961072332 115.544045744581 0.999987432682504 -0.787761679659879 0.999987432683098 -0.787761679659884 0.00501342961072299 62.8804308961072 
! Gamma         7.07514477909577E-30 2265.04935262392 1.43897278368289E-30 2267.48814827798 
! Port Impedance         50               0                50               0                
3.18                           0.00577008047205151 111.73304404885  0.999983352946828 -0.933569892457876 0.999983352947394 -0.933569892457872 0.0057700804720515 66.3998161662344 
! Gamma         4.02672044182562E-30 2684.29460283705 0                2687.18480355667 
! Port Impedance         50               0                50               0                
3.67666666666667               0.00654455027425907 108.78051227415  0.999978584201553 -1.07937721226279 0.999978584201519 -1.07937721226279 0.00654455027425911 69.0607333013239 
! Gamma         4.54376949523728E-32 3103.53989906347 6.30096870797267E-31 3106.88150518032 
! Port Impedance         50               0                50               0                
4.17333333333333               0.00733109969706564 106.426813532149 0.999973127127513 -1.22518347805997 0.999973127127568 -1.22518347805997 0.00733109969706551 71.1228195117342 
! Gamma         1.09935453069978E-29 3522.78524848939 2.51276410468568E-44 3526.57826038692 
! Port Impedance         50               0                50               0                
4.67                           0.00812610765107623 104.504245740737 0.999966982641762 -1.37098889795436 0.999966982642535 -1.37098889795436 0.00812610765107618 72.7537764633567 
! Gamma         0                3942.03065866252 1.31624203385808E-30 3946.27507641434 
! Port Impedance         50               0                50               0                
5.16666666666667               0.00892727257700421 102.903159016306 0.999960151108256 -1.51679278894771 0.999960151108145 -1.51679278894771 0.0089272725770043 74.063255405798  
! Gamma         0                4361.27613489312 0                4365.97195901791 
! Port Impedance         50               0                50               0                
5.66333333333333               0.0097329322551214 101.54573085773  0.999952633893207 -1.66259529324627 0.999952633892962 -1.66259529324627 0.00973293225512152 75.1290785557747 
! Gamma         1.04163557165905E-21 4780.52168801591 0                4785.66891984736 
! Port Impedance         50               0                50               0                
6.16                           0.0105418671717192 100.376009242708 0.999944432974524 -1.80839613755571 0.999944432974315 -1.80839613755571 0.0105418671717192 76.0071984821801 
! Gamma         0                5199.76731961255 0                5205.36596105214 
! Port Impedance         50               0                50               0                
6.65666666666667               0.0113531851115865 99.352794500157  0.999935550516951 -1.95419556920036 0.999935550517136 -1.95419556920036 0.0113531851115863 76.7388143614464 
! Gamma         0                5619.01304751888 0                5625.06309407167 
! Port Impedance         50               0                50               0                
7.15333333333333               0.012166279608091 98.447694271784  0.999925988080953 -2.09999322583   0.99992598808178 -2.09999322583   0.012166279608091 77.3523192765561 
! Gamma         0                6038.25886379222 0                6044.76032242721 
! Port Impedance         50               0                50               0                
7.65                           0.0129804399293808 97.6338768459578 0.999915750540323 -2.24578826575687 0.999915750540944 -2.24578826575687 0.0129804399293808 77.8745466225265 
! Gamma         0                6457.50478607697 0                6464.45765444844 
! Port Impedance         50               0                50               0                
8.14666666666667               0.0137953209868969 96.8954952149736 0.999904840031776 -2.39158043007161 0.999904840031674 -2.39158043007161 0.0137953209868968 78.3213439248856 
! Gamma         0                6876.7508216407  0                6884.15509761849 
! Port Impedance         50               0                50               0                
8.64333333333333               0.0146108390875673 96.2238263615072 0.999893255993136 -2.53737040610235 0.999893255993737 -2.53737040610235 0.0146108390875673 78.7014328262865 
! Gamma         0                7295.99697387238 0                7303.85266433531 
! Port Impedance         50               0                50               0                
9.14                           0.0154266962525239 95.6075443610798 0.999881001441229 -2.6831577438107 0.999881001440846 -2.68315774381069 0.015426696252524 79.0261401512975 
! Gamma         0                7715.24324869781 8.62634373877285E-22 7723.55034959736 
! Port Impedance         50               0                50               0                
9.63666666666667               0.0162427271012742 95.0388853726226 0.999868078206446 -2.82894270401856 0.999868078206508 -2.82894270401856 0.0162427271012742 79.30322921934   
! Gamma         0                8134.48965847342 0                8143.24817387191 
! Port Impedance         50               0                50               0                
10.1333333333333               0.0170588941235571 94.5175819481575 0.999854486478452 -2.97472299489216 0.999854486478644 -2.97472299489216 0.017058894123557 79.5329720620588 
! Gamma         0                8553.73620632286 0                8562.94613688832 
! Port Impedance         50               0                50               0                
10.63                          0.0178748983796942 94.0327499743449 0.999840231240787 -3.12049963713777 0.999840231241071 -3.12049963713777 0.0178748983796942 79.7262507513784 
! Gamma         0                8972.98290205997 0                8982.64424649182 
! Port Impedance         50               0                50               0                
11.1266666666667               0.0186905724002653 93.5782560613415 0.999825315994607 -3.26627298866807 0.999825315994242 -3.26627298866807 0.0186905724002652 79.8891979613216 
! Gamma         0                9392.2297496146  0                9402.34251115874 
! Port Impedance         50               0                50               0                
11.6233333333333               0.0195058019434363 93.1502476652394 0.999809743746955 -3.41204301185569 0.999809743746147 -3.41204301185569 0.0195058019434363 80.025666311051  
! Gamma         0                9811.47675972339 0                9822.04094019447 
! Port Impedance         50               0                50               0                
12.12                          0.020320469645242 92.7452958836389 0.999793517938835 -3.55780954438856 0.999793517939719 -3.55780954438856 0.020320469645242 80.1390850275835 
! Gamma         0                10230.7239374871 0                10241.7395366498 
! Port Impedance         50               0                50               0                
12.6166666666667               0.0211342518378036 92.3570876349738 0.999776646756114 -3.7035708458866 0.99977664675647 -3.70357084588661 0.0211342518378036 80.2357706732528 
! Gamma         0                10649.9712905422 0                10661.438309295  
! Port Impedance         50               0                50               0                
13.1133333333333               0.0219470498461287 91.9834621770724 0.999759134493268 -3.84932651968932 0.999759134493592 -3.84932651968932 0.0219470498461286 80.3178847835491 
! Gamma         0                11069.2188263074 0                11081.1372663777 
! Port Impedance         50               0                50               0                
13.61                          0.0227590221131578 91.6262580429177 0.999740979910586 -3.99507810093008 0.99974097991046 -3.99507810093008 0.0227590221131578 80.3835857552226 
! Gamma         0                11488.4665523221 0                11500.8364151496 
! Port Impedance         50               0                50               0                
14.1066666666667               0.0235700903271361 91.2838856955053 0.9997221868312  -4.14082533548138 0.999722186830614 -4.14082533548138 0.0235700903271361 80.4344636335319 
! Gamma         0                11907.7144746407 0                11920.5357610446 
! Port Impedance         50               0                50               0                
14.6033333333333               0.0243801867666726 90.9548615034303 0.999702759070499 -4.28656823696719 0.999702759070554 -4.28656823696719 0.0243801867666725 80.472002022637  
! Gamma         0                12326.9625988766 0                12340.235313309  
! Port Impedance         50               0                50               0                
15.1                           0.0251892410684979 90.6377677499041 0.999682700727747 -4.43230672844683 0.999682700727819 -4.43230672844683 0.0251892410684979 80.4976187932034 
! Gamma         0                12746.2109366184 0                12759.9350778729 
! Port Impedance         50               0                50               0                
15.5966666666667               0.0259971937569336 90.3326805180597 0.999662015841747 -4.57803994852093 0.999662015841726 -4.57803994852093 0.0259971937569336 80.5112395848981 
! Gamma         0                13165.4594921129 0                13179.635062133  
! Port Impedance         50               0                50               0                
16.0933333333333               0.0268039785489192 90.043152763511  0.999640708821899 -4.72376445121114 0.999640708821898 -4.72376445121114 0.0268039785489192 80.5093183340653 
! Gamma         0                13584.7082742393 0                13599.3352745381 
! Port Impedance         50               0                50               0                
16.59                          0.027609508814623 89.7624851567534 0.999618784849226 -4.86948384802443 0.999618784848798 -4.86948384802443 0.027609508814623 80.4985471471972 
! Gamma         0                14003.9572887396 0                14019.0357219913 
! Port Impedance         50               0                50               0                
17.0866666666667               0.0284137240337567 89.4897171447849 0.999596248635731 -5.01519813501667 0.999596248635638 -5.01519813501666 0.0284137240337566 80.4798865851817 
! Gamma         0                14423.2065433159 0                14438.7364089811 
! Port Impedance         50               0                50               0                
17.5833333333333               0.0292165744996533 89.224376795394  0.999573104767927 -5.16090723718987 0.999573104767039 -5.16090723718987 0.0292165744996533 80.4538087302259 
! Gamma         0                14842.4560436067 0                14858.4373462015 
! Port Impedance         50               0                50               0                
18.08                          0.0300180068340941 88.9657502212722 0.99954935809367 -5.30661112191011 0.999549358093912 -5.30661112191011 0.0300180068340941 80.4210275349094 
! Gamma         0                15261.7057983136 0                15278.1385390809 
! Port Impedance         50               0                50               0                
18.5766666666667               0.0308179703272513 88.7132728834233 0.999525013545718 -5.45230981799969 0.99952501354706 -5.45230981799972 0.0308179703272513 80.3821074805771 
! Gamma         0                15680.9558155058 0                15697.8399956081 
! Port Impedance         50               0                50               0                
19.0733333333333               0.0316164131604063 88.4664693605908 0.999500076247554 -5.59800326339575 0.999500076247558 -5.59800326339577 0.0316164131604063 80.3375241126186 
! Gamma         0                16100.2061018566 0                16117.5417214399 
! Port Impedance         50               0                50               0                
19.57                          0.0324132908118952 88.2250602619936 0.999474551241095 -5.74369136710754 0.999474551241251 -5.74369136710755 0.0324132908118952 80.2875570037925 
! Gamma         0                16519.4566621902 0                16537.2437266384 
! Port Impedance         50               0                50               0                
20.0666666666667               0.0332085533184406 87.9884891342467 0.999448443886116 -5.88937422526073 0.999448443886234 -5.88937422526073 0.0332085533184406 80.2327624152319 
! Gamma         0                16938.7075074015 0                16956.9460162372 
! Port Impedance         50               0                50               0                
20.5633333333333               0.034002154535591 87.756440290971  0.999421759562494 -6.03505180508122 0.999421759562439 -6.03505180508122 0.0340021545355911 80.1734560988654 
! Gamma         0                17357.9586415667 0                17376.6485978499 
! Port Impedance         50               0                50               0                
21.06                          0.0347940502200569 87.5286366645187 0.999394503721228 -6.18072410452758 0.999394503722314 -6.18072410452757 0.0347940502200569 80.109915126427  
! Gamma         0                17777.2100726147 0                17796.3514794484 
! Port Impedance         50               0                50               0                
21.5566666666667               0.0355841937603864 87.3047332005003 0.999366682031213 -6.32639117190616 0.999366682031561 -6.32639117190614 0.0355841937603863 80.0424844556871 
! Gamma         0                18196.4618097331 0                18216.0546670286 
! Port Impedance         50               0                50               0                
22.0533333333333               0.0363725432647837 87.0845296750353 0.999338300124864 -6.47205302316257 0.999338300124863 -6.47205302316258 0.0363725432647837 79.9713642786396 
! Gamma         0                18615.7138572639 0                18635.7581694713 
! Port Impedance         50               0                50               0                
22.55                          0.0371590548925243 86.867739131952  0.999309363830383 -6.61770974137618 0.999309363830792 -6.61770974137618 0.0371590548925243 79.896841385295  
! Gamma         0                19034.9662241869 0                19055.4619932677 
! Port Impedance         50               0                50               0                
23.0466666666667               0.037943684772204 86.6541290131075 0.999279879106064 -6.76336130788006 0.999279879105741 -6.76336130788005 0.0379436847722039 79.8191483711325 
! Gamma         0                19454.2189164311 0                19475.1661441774 
! Port Impedance         50               0                50               0                
23.5433333333333               0.0387263923120399 86.4435205700213 0.999249851907764 -6.90900785161967 0.999249851908569 -6.9090078516197 0.03872639231204 79.7384637267386 
! Gamma         0                19873.4719419714 0                19894.8706309518 
! Port Impedance         50               0                50               0                
24.04                          0.0395071353969793 86.235743749184  0.999219288371352 -7.05464941646094 0.999219288370724 -7.05464941646095 0.0395071353969794 79.6549574178929 
! Gamma         0                20292.7253081178 0                20314.5754606411 
! Port Impedance         50               0                50               0                
24.5366666666667               0.0402858745913552 86.030573669903  0.999188194640053 -7.20028612451725 0.999188194640413 -7.20028612451726 0.0402858745913553 79.5688540810611 
! Gamma         0                20711.9790214271 0                20734.280639863  
! Port Impedance         50               0                50               0                
25.0333333333333               0.0410625690011461 85.8279131139997 0.999156577032939 -7.34591802422423 0.999156577031786 -7.34591802422423 0.0410625690011461 79.480250837552  
! Gamma         0                21131.2330896101 0                21153.9861767449 
! Port Impedance         50               0                50               0                
25.53                          0.0418371794227738 85.6275882779669 0.99912444190832 -7.49154527027832 0.999124441907654 -7.49154527027831 0.0418371794227739 79.3893211814754 
! Gamma         0                21550.4875203287 0                21573.692078045  
! Port Impedance         50               0                50               0                
26.0266666666667               0.042609666013304 85.4294568288769 0.999091795763724 -7.63716795179918 0.999091795763576 -7.6371679517992 0.042609666013304 79.2962072675244 
! Gamma         0                21969.7423186604 0                21993.3983505858 
! Port Impedance         50               0                50               0                
26.5233333333333               0.0433799903961588 85.2334300591458 0.999058645142199 -7.78278619824073 0.999058645142062 -7.78278619824073 0.0433799903961587 79.2009975443726 
! Gamma         0                22388.9974936405 0                22413.1050025539 
! Port Impedance         50               0                50               0                
27.02                          0.0441481162998063 85.0393492487946 0.999024996598059 -7.92840020093636 0.999024996597486 -7.92840020093639 0.0441481162998062 79.1038503493331 
! Gamma         0                22808.2530525499 0                22832.8120407777 
! Port Impedance         50               0                50               0                
27.5166666666667               0.0449140021898616 84.8471306925684 0.998990857019182 -8.07401005559855 0.998990857018552 -8.07401005559859 0.0449140021898616 79.0048491962352 
! Gamma         0                23227.5090019454 0                23252.5194714965 
! Port Impedance         50               0                50               0                
28.0133333333333               0.0456776134643103 84.6566790695726 0.998956233088942 -8.21961593299302 0.9989562330899  -8.21961593299303 0.0456776134643103 78.9040890644415 
! Gamma         0                23646.7653481369 0                23672.2273030316 
! Port Impedance         50               0                50               0                
28.51                          0.046438912166624 84.4678954469325 0.99892113174018 -8.365218041213  0.998921131739877 -8.36521804121298 0.0464389121666241 78.8016684706411 
! Gamma         0                24066.0220989733 0                24091.9355422649 
! Port Impedance         50               0                50               0                
29.0066666666667               0.0471978631563791 84.2806837510897 0.998885559868686 -8.5108165734339 0.99888555986798 -8.51081657343388 0.0471978631563792 78.6976831020438 
! Gamma         0                24485.279262549  0                24511.6441964154 
! Port Impedance         50               0                50               0                
29.5033333333333               0.0479544296105955 84.0949886288791 0.998849524543296 -8.65641170133004 0.998849524543651 -8.65641170133005 0.0479544296105955 78.5921879684604 
! Gamma         0                24904.5368451075 0                24931.3532735062 
! Port Impedance         50               0                50               0                
30                             0.0487085750817796 83.9107072737008 0.998813032911655 -8.80200365522014 0.998813032910979 -8.80200365522013 0.0487085750817796 78.4852854158591 
! Gamma         0                25323.7948533258 0                25351.0627787811 
! Port Impedance         50               0                50               0                
