! Touchstone file exported from HFSS 2026.1.0
!        Generated:      11:53:43 AM Aug 24, 2026
!        Design:         HFSSDesign_Kinetic_debug
!        Project:        kinetic_stub_sweep
!        Setup:          Setup1
!        Solution:       Sweep_lowfreq
!
! Variables:
!        stub_length = 2.5um
!
# GHz S MA R 50.000000
! Terminal data exported
! Port[1] = Port1
! Port[2] = Port2
0.01                           0.0150401659180331 -179.994816815702 0.999886890307679 -0.00402125157262436 0.999886890307677 -0.00402125157262437 0.0150401659180327 -0.0132256874436164 
! Gamma         0                8.3291422675989  2.49529332128533E-39 8.45467900619243 
! Port Impedance         50               0                50               0                
0.02                           0.0150401664221158 -179.988819820284 0.999886890300098 -0.00805492989211698 0.999886890300093 -0.00805492989211698 0.0150401664221159 -0.0272900395003598 
! Gamma         1.87443837234394E-31 16.6582845352519 0                16.9093580124448 
! Port Impedance         50               0                50               0                
0.03                           0.0150401672583272 -179.983192521948 0.999886890287518 -0.0120829629857213 0.999886890287516 -0.0120829629857213 0.0150401672583278 -0.0409734040235904 
! Gamma         0                24.9874268030132 0                25.3640370188171 
! Port Impedance         50               0                50               0                
0.04                           0.0150401683717148 -179.977700099543 0.999886890270771 -0.0161089365214885 0.999886890270768 -0.0161089365214885 0.0150401683717153 -0.0545177735002622 
! Gamma         0                33.3165690709368 0                33.8187160253691 
! Port Impedance         50               0                50               0                
0.05                           0.0150401699026626 -179.972364111139 0.999886890247742 -0.0201325213017465 0.999886890247742 -0.0201325213017465 0.015040169902662 -0.0679009314647311 
! Gamma         4.18204968842257E-45 41.645711339077  0                42.273395032161  
! Port Impedance         50               0                50               0                
0.06                           0.0150401718172485 -179.966558679451 0.999886890218943 -0.0241632743542678 0.999886890218942 -0.0241632743542678 0.0150401718172491 -0.0817678692579745 
! Gamma         5.51948366783853E-39 49.9748536074878 0                50.7280740392526 
! Port Impedance         50               0                50               0                
0.07                           0.0150401739245279 -179.961100715447 0.999886890187246 -0.028188721570649 0.999886890187245 -0.0281887215706491 0.0150401739245279 -0.0952767276942386 
! Gamma         3.67313453626547E-32 58.3039958762233 0                59.1827530467038 
! Port Impedance         50               0                50               0                
0.08                           0.0150401764188468 -179.955446455599 0.999886890149726 -0.0322171661281152 0.999886890149725 -0.0322171661281153 0.015040176418847 -0.108987876657731 
! Gamma         1.25142620531287E-37 66.6331381453377 0                67.6374320545746 
! Port Impedance         50               0                50               0                
0.09                           0.0150401792925322 -179.949707819627 0.999886890106498 -0.036246899023473 0.999886890106503 -0.036246899023473 0.0150401792925327 -0.122785978419498 
! Gamma         0                74.9622804148851 0                76.092111062925  
! Port Impedance         50               0                50               0                
0.1                            0.015040182285815 -179.944508282857 0.999886890061478 -0.0402683998640027 0.999886890061473 -0.040268399864003 0.0150401822858155 -0.13602851687054 
! Gamma         3.07153830566431E-31 83.2914226849196 0                84.5467900718149 
! Port Impedance         50               0                50               0                
