! Touchstone file exported from HFSS 2026.1.0
!        Generated:      11:49:57 AM Aug 24, 2026
!        Design:         HFSSDesign_Kinetic_debug
!        Project:        kinetic_stub_sweep
!        Setup:          Setup1
!        Solution:       Sweep_lowfreq
!
! Variables:
!        stub_length = 2.5um
!
# GHz S MA R 50.000000
! Terminal data exported
! Port[1] = Port1
! Port[2] = Port2
0.01                           0.0124315008064859 -0.0265903852633127 0.999922725908221 -0.00425743525958149 0.999922725908194 -0.00425743525958148 0.0124315008064866 -179.981924485256 
! Gamma         0                8.66951600702493 0                8.5520709814954  
! Port Impedance         50               0                50               0                
0.02                           0.0124315033000253 -0.0518681253211973 0.999922725877225 -0.00849875279423812 0.999922725877186 -0.00849875279423809 0.0124315033000253 -179.965129380267 
! Gamma         0                17.3390320141203 8.60309571298074E-40 17.1041419630542 
! Port Impedance         50               0                50               0                
0.03                           0.0124315071423932 -0.0763965671575997 0.999922725829461 -0.0127308698946524 0.99992272582941 -0.0127308698946524 0.0124315071423936 -179.949065172632 
! Gamma         0                26.0085480213565 0                25.6562129447397 
! Port Impedance         50               0                50               0                
0.04                           0.0124315129616115 -0.102076841664839 0.999922725757104 -0.0169771303565454 0.999922725757072 -0.0169771303565454 0.0124315129616109 -179.931877419048 
! Gamma         0                34.6780640288039 4.43234602758946E-37 34.2082839266153 
! Port Impedance         50               0                50               0                
0.05                           0.0124315204201209 -0.127400690118945 0.999922725664407 -0.0212190145282222 0.999922725664314 -0.0212190145282223 0.0124315204201207 -179.915037338938 
! Gamma         1.67262250383721E-40 43.3475800365331 8.58223000553268E-42 42.7603549087445 
! Port Impedance         50               0                50               0                
0.06                           0.0124315295891563 -0.152939157073768 0.999922725550377 -0.0254635342376227 0.999922725550358 -0.0254635342376227 0.0124315295891568 -179.897987911401 
! Gamma         0                52.0170960446143 1.59525690986614E-34 51.3124258911905 
! Port Impedance         50               0                50               0                
0.07                           0.0124315404332254 -0.1785201663827 0.999922725415574 -0.0297085766420854 0.999922725415522 -0.0297085766420854 0.0124315404332258 -179.880896986901 
! Gamma         5.26827934207887E-34 60.6866120531181 0                59.8644968740168 
! Port Impedance         50               0                50               0                
0.08                           0.0124315528839588 -0.203960945305251 0.999922725260756 -0.0339518975442788 0.99992272526075 -0.0339518975442788 0.0124315528839579 -179.863942849783 
! Gamma         0                69.3561280621148 3.21361200060089E-38 68.4165678572867 
! Port Impedance         50               0                50               0                
0.09                           0.0124315669343617 -0.2293207557222 0.999922725086098 -0.0381942246608957 0.999922725086046 -0.0381942246608956 0.0124315669343622 -179.8470676936  
! Gamma         0                78.0256440716749 1.17396895765343E-39 76.9686388410636 
! Port Impedance         50               0                50               0                
0.1                            0.0124315826522712 -0.254711250534489 0.999922724890675 -0.0424369290255955 0.999922724890642 -0.0424369290255955 0.0124315826522714 -179.830162607517 
! Gamma         0                86.6951600818687 3.50642097224122E-33 85.5207098254109 
! Port Impedance         50               0                50               0                
