! Touchstone file exported from HFSS 2026.1.0
!        Generated:      11:52:31 AM Aug 24, 2026
!        Design:         HFSSDesign_Kinetic_debug
!        Project:        kinetic_stub_sweep
!        Setup:          Setup1
!        Solution:       Sweep_discrete_debug
!
! Variables:
!        stub_length = 2.5um
!
# GHz S MA R 50.000000
! Terminal data exported
! Port[1] = Port1
! Port[2] = Port2
0.2                            0.000925768150120249 5.72725391387735 0.999999571476574 -0.0717650226336652 0.999999571476576 -0.0717650226336657 0.00092576815012061 174.129216040858 
! Gamma         0                167.683306366007 3.23626207961558E-36 167.573687306792 
! Port Impedance         50               0                50               0                
0.696666666666667              0.000976992372727477 19.2294750028539 0.999999522743058 -0.249982405177036 0.999999522742617 -0.249982405177036 0.000976992372726655 160.270560186775 
! Gamma         0                584.096853420177 0                583.715013680872 
! Port Impedance         50               0                50               0                
1.19333333333333               0.00107699743131605 30.7728656173275 0.999999420038414 -0.428203867772917 0.999999420037784 -0.428203867772917 0.00107699743131705 148.370726647158 
! Gamma         0                1000.51041015187 6.90796395673332E-33 999.856349678053 
! Port Impedance         50               0                50               0                
1.69                           0.00121348411559674 40.0030344116545 0.999999263727662 -0.606431939362937 0.999999263728098 -0.606431939362937 0.00121348411559686 138.784101709625 
! Gamma         0                1416.92398346034 1.31131873355269E-31 1415.9977021588  
! Port Impedance         50               0                50               0                
2.18666666666667               0.00137550828377406 47.1705804135505 0.999999053988182 -0.784669608343527 0.999999053987884 -0.784669608343529 0.00137550828377401 131.260080369762 
! Gamma         2.08190461356693E-30 1833.33758024479 0                1832.13907798352 
! Port Impedance         50               0                50               0                
2.68333333333333               0.00155507961903216 52.7016377747407 0.99999879086342 -0.962919563365513 0.999998790862496 -0.962919563365514 0.00155507961903191 125.372523098514 
! Gamma         1.13190812758217E-32 2249.75120740434 4.74315618606906E-32 2248.28048401255 
! Port Impedance         50               0                50               0                
3.18                           0.00174640816851074 57.0077015143285 0.999998475027373 -1.14118456103818 0.999998475028811 -1.14118456103818 0.00174640816851113 120.709929363617 
! Gamma         4.13993051953831E-31 2666.16487183807 1.3183669416863E-30 2664.42192710614 
! Port Impedance         50               0                50               0                
3.67666666666667               0.00194580328287341 60.4020616383943 0.999998106923805 -1.31946742010588 0.999998106922195 -1.31946742010588 0.00194580328287322 116.959003521381 
! Gamma         0                3082.57858044488 1.59533210069646E-30 3080.56341412443 
! Port Impedance         50               0                50               0                
4.17333333333333               0.00215079590711376 63.1125596942203 0.999997687035539 -1.49777102536898 0.999997687036077 -1.49777102536898 0.00215079590711379 113.891898255042 
! Gamma         0                3498.99234245752 3.41407145750903E-30 3496.70495192742 
! Port Impedance         50               0                50               0                
4.67                           0.00235955142442397 65.3103736205905 0.999997216254531 -1.67609803026695 0.999997216254796 -1.67609803026695 0.00235955142442398 111.337430318879 
! Gamma         0                3915.40615742835 0                3912.84654543973 
! Port Impedance         50               0                50               0                
5.16666666666667               0.00257094365451702 67.1103903979195 0.999996695118636 -1.85445141216316 0.999996695119167 -1.85445141216316 0.00257094365451699 109.180706777754 
! Gamma         0                4331.82004037523 3.44954013537094E-22 4328.98820543021 
! Port Impedance         50               0                50               0                
5.66333333333333               0.00278403149994691 68.6024575629839 0.999996124576936 -2.03283389115174 0.999996124576652 -2.03283389115175 0.00278403149994701 107.331874654719 
! Gamma         0                4748.23399482876 0                4745.12993804411 
! Port Impedance         50               0                50               0                
6.16                           0.00299817231579073 69.8492691950631 0.999995505470814 -2.21124835901394 0.999995505471751 -2.21124835901394 0.00299817231579087 105.728234086922 
! Gamma         0                5164.64802705573 0                5161.27174948484 
! Port Impedance         50               0                50               0                
6.65666666666667               0.00321287883448038 70.8972917808128 0.999994838691464 -2.3896976289863 0.999994838691492 -2.38969762898629 0.00321287883448041 104.323312961219 
! Gamma         0                5581.06214643129 0                5577.41364310857 
! Port Impedance         50               0                50               0                
7.15333333333333               0.00342770386397028 71.7855604009003 0.99999412540558 -2.56818454056016 0.99999412540613 -2.56818454056016 0.00342770386397009 103.078070517975 
! Gamma         0                5997.47635770579 0                5993.55562977616 
! Port Impedance         50               0                50               0                
7.65                           0.0036423083564098 72.5425786339075 0.999993366772103 -2.74671192909659 0.999993366773734 -2.74671192909659 0.00364230835640979 101.9639975079   
! Gamma         0                6413.89066702685 0                6409.69771475131 
! Port Impedance         50               0                50               0                
8.14666666666667               0.0038564292587  73.1897408980789 0.999992563949195 -2.92528274883791 0.999992563948884 -2.92528274883791 0.00385642925870017 100.959693604255 
! Gamma         6.49550465376846E-22 6830.305083818   0                6825.83990745722 
! Port Impedance         50               0                50               0                
8.64333333333333               0.00406983445897445 73.7437554452386 0.999991718189505 -3.1038997579264 0.999991718189383 -3.1038997579264 0.00406983445897439 100.048445038902 
! Gamma         1.21596224493761E-21 7246.71961377956 0                7241.98220927627 
! Port Impedance         50               0                50               0                
9.14                           0.00428242640547668 74.2093503300924 0.999990830370105 -3.28256575513677 0.999990830369895 -3.28256575513677 0.00428242640547676 99.2255181596346 
! Gamma         1.9659689041369E-21 7663.13426424929 0                7658.12463157588 
! Port Impedance         50               0                50               0                
9.63666666666667               0.00449407456993464 74.5919514304756 0.999989901595933 -3.46128337166592 0.999989901595849 -3.46128337166593 0.0044940745699348 98.4854818262005 
! Gamma         0                8079.54904111209 0                8074.26718022598 
! Port Impedance         50               0                50               0                
10.1333333333333               0.0047043869732715 74.9185518245249 0.999988934310433 -3.64005588719577 0.999988934310324 -3.64005588719577 0.00470438697327154 97.8013364010829 
! Gamma         0                8495.96395124931 0                8490.40986438477 
! Port Impedance         50               0                50               0                
10.63                          0.00491322369438934 75.1955493239661 0.999987930043391 -3.81888617175289 0.999987930043855 -3.81888617175289 0.00491322369438945 97.1666783325346 
! Gamma         1.30235662605794E-20 8912.37900184597 0                8906.55268606485 
! Port Impedance         50               0                50               0                
11.1266666666667               0.00512044366405054 75.4293949286651 0.999986890442752 -3.99777716785351 0.999986890442071 -3.99777716785351 0.00512044366405061 96.5750507356287 
! Gamma         5.16298706162028E-22 9328.79420126275 0                9322.69565420505 
! Port Impedance         50               0                50               0                
11.6233333333333               0.00532589762079623 75.6260745242058 0.999985817306995 -4.17673182649561 0.999985817306388 -4.17673182649561 0.00532589762079606 96.0204618227949 
! Gamma         4.90532627733452E-21 9745.20955376414 0                9738.83877654526 
! Port Impedance         50               0                50               0                
12.12                          0.00552920880449465 75.8000723640716 0.999984713808548 -4.35575284954724 0.99998471380778 -4.3557528495473 0.0055292088044946 95.4884219368318 
! Gamma         0                10161.6250695959 0                10154.9820602633 
! Port Impedance         50               0                50               0                
12.6166666666667               0.00573011632616584 75.9598711708534 0.999983582748714 -4.53484291711141 0.99998358274865 -4.53484291711139 0.00573011632616591 94.970442994928  
! Gamma         2.96678186892972E-21 10578.0407521162 0                10571.1255111174 
! Port Impedance         50               0                50               0                
13.1133333333333               0.00592888666375714 76.0924284978544 0.999982423996568 -4.71400554989758 0.999982423997444 -4.71400554989759 0.00592888666375692 94.4795604023428 
! Gamma         4.00257818001848E-21 10994.4566108382 0                10987.2691354068 
! Port Impedance         50               0                50               0                
13.61                          0.00612528775284177 76.2051598030024 0.999981240249767 -4.89324357135348 0.999981240248249 -4.89324357135352 0.00612528775284158 94.0083530542844 
! Gamma         4.30370249040002E-21 11410.8726511607 0                11403.4129417481 
! Port Impedance         50               0                50               0                
14.1066666666667               0.00631851639921051 76.3256814486048 0.999980037975374 -5.07255896904438 0.999980037976657 -5.07255896904434 0.00631851639921068 93.5292006133119 
! Gamma         1.89586479995502E-21 11827.2888809541 0                11819.5569352575 
! Port Impedance         50               0                50               0                
14.6033333333333               0.00650923991907707 76.425851085614  0.999978814673561 -5.25195588892293 0.999978814673298 -5.25195588892292 0.00650923991907719 93.0702371365456 
! Gamma         6.33044997045937E-21 12243.7053060453 0                12235.7011240394 
! Port Impedance         50               0                50               0                
15.1                           0.00669735149487082 76.5073616143499 0.999977572489609 -5.43143740798924 0.999977572490353 -5.43143740798925 0.00669735149487091 92.6297635696757 
! Gamma         6.15730805172999E-21 12660.1219342605 0                12651.845514011  
! Port Impedance         50               0                50               0                
15.5966666666667               0.00688273770195721 76.5720761813092 0.999976313680295 -5.61100661862042 0.99997631368039 -5.6110066186204 0.00688273770195716 92.2059105814517 
! Gamma         3.09520916827773E-21 13076.5387718811 0                13067.990112684  
! Port Impedance         50               0                50               0                
16.0933333333333               0.00706529417697763 76.6213428547732 0.999975040497724 -5.79066662175295 0.999975040497493 -5.79066662175293 0.00706529417697759 91.7973239017214 
! Gamma         0                13492.9558266547 0                13484.1349261837 
! Port Impedance         50               0                50               0                
16.59                          0.00724491139931229 76.6566281375357 0.9999737552846  -5.97042057442507 0.99997375528543 -5.97042057442504 0.00724491139931222 91.4025307136083 
! Gamma         1.50408669036622E-21 13909.3731045625 0                13900.2799623378 
! Port Impedance         50               0                50               0                
17.0866666666667               0.00742148416001618 76.6790439219049 0.999972460406953 -6.15027165393321 0.999972460407481 -6.15027165393319 0.00742148416001611 91.020412770224  
! Gamma         0                14325.7906126862 0                14316.4252272074 
! Port Impedance         50               0                50               0                
17.5833333333333               0.00759490886943269 76.6896463991283 0.99997115826296 -6.33022304938191 0.999971158264458 -6.3302230493819 0.0075949088694327 90.6499075021043 
! Gamma         1.65845008510282E-22 14742.2083581021 0                14732.5707283365 
! Port Impedance         50               0                50               0                
18.08                          0.00776508100251972 76.6894179504693 0.999969851304563 -6.51027794848111 0.999969851303519 -6.51027794848116 0.00776508100251978 90.290026152573  
! Gamma         3.82870438313815E-22 15158.6263471401 0                15148.7164724028 
! Port Impedance         50               0                50               0                
18.5766666666667               0.00793190149414391 76.6790516498814 0.999968541974797 -6.69043961573439 0.999968541974283 -6.69043961573437 0.00793190149414419 89.9400691186494 
! Gamma         1.43833427881226E-21 15575.0445880065 0                15564.8624663342 
! Port Impedance         50               0                50               0                
19.0733333333333               0.00809526393767849 76.6593367633345 0.999967232814098 -6.87071130437488 0.999967232813993 -6.87071130437491 0.00809526393767883 89.5992406279118 
! Gamma         9.42125163736466E-22 15991.4630858628 0                15981.0087153855 
! Port Impedance         50               0                50               0                
19.57                          0.008255069955309 76.6309819181357 0.99996592632919 -7.0510963217111 0.999965926329828 -7.05109632171111 0.00825506995530896 89.266825438438  
! Gamma         0                16407.8818490263 0                16397.1552284979 
! Port Impedance         50               0                50               0                
20.0666666666667               0.0084112181705248 76.5945516374078 0.999964625078906 -7.2315979914628 0.999964625078596 -7.23159799146286 0.00841121817052461 88.9422523796646 
! Gamma         0                16824.300883991  0                16813.3020117822 
! Port Impedance         50               0                50               0                
20.5633333333333               0.0085636049590327 76.5506706861768 0.999963331662276 -7.41221965191071 0.999963331663262 -7.41221965191071 0.00856360495903294 88.6248900100027 
! Gamma         1.47768848816849E-21 17240.7201964538 0                17229.4490719144 
! Port Impedance         50               0                50               0                
21.06                          0.00871213650970373 76.4996786548746 0.999962048619279 -7.59296468892652 0.99996204861785 -7.59296468892652 0.00871213650970381 88.3143919672735 
! Gamma         0                17657.1397958753 0                17645.5964161535 
! Port Impedance         50               0                50               0                
21.5566666666667               0.00885670758340435 76.4421212780154 0.999960778596822 -7.77383653062683 0.999960778595642 -7.7738365306268 0.00885670758340414 88.010205660734  
! Gamma         0                18073.5596870126 0                18061.7440507657 
! Port Impedance         50               0                50               0                
22.0533333333333               0.0089971547742835 76.3682322196362 0.999959524783999 -7.95483778527407 0.999959524783726 -7.95483778527411 0.00899715477428383 87.7220922098176 
! Gamma         0                18489.9798767868 0                18477.8919826237 
! Port Impedance         50               0                50               0                
22.55                          0.00913323530508322 76.2613541261865 0.999958291136658 -8.13597042654318 0.999958291136575 -8.13597042654319 0.00913323530508313 87.4667050207277 
! Gamma         0                18906.4003735901 0                18894.0402191465 
! Port Impedance         50               0                50               0                
23.0466666666667               0.00926499427049231 76.1494190003426 0.999957079019337 -8.3172401505063 0.999957079019619 -8.31724015050633 0.00926499427049244 87.2161006986433 
! Gamma         0                19322.8211822945 0                19310.1887674086 
! Port Impedance         50               0                50               0                
23.5433333333333               0.00939233558576168 76.0325313456384 0.999955891043625 -8.49865047765374 0.99995589104302 -8.49865047765375 0.00939233558576168 86.970167699056  
! Gamma         0                19739.2423115431 0                19726.3376326914 
! Port Impedance         50               0                50               0                
24.04                          0.00951515773421983 75.9110299857079 0.999954729861896 -8.68020500080096 0.999954729862012 -8.68020500080092 0.00951515773421964 86.7285600126907 
! Gamma         0                20155.663767029  0                20142.4868234194 
! Port Impedance         50               0                50               0                
24.5366666666667               0.0096333638783461 75.7850107701106 0.999953598074134 -8.86190733473019 0.999953598073113 -8.86190733473019 0.00963336387834553 86.4911745604251 
! Gamma         0                20572.0855569082 0                20558.6363456824 
! Port Impedance         50               0                50               0                
25.0333333333333               0.0097468509537828 75.6547690526011 0.999952498320257 -9.04376113011765 0.999952498319818 -9.04376113011766 0.00974685095378229 86.2577086871594 
! Gamma         0                20988.5076863075 0                20974.7862065601 
! Port Impedance         50               0                50               0                
25.53                          0.00985552193424155 75.5203639798042 0.999951433164474 -9.22577006921378 0.999951433164193 -9.22577006921377 0.00985552193424164 86.0280958817709 
! Gamma         0                21404.9301633619 0                21390.9364121934 
! Port Impedance         50               0                50               0                
26.0266666666667               0.00995927744721194 75.3820278066527 0.999950405166545 -9.4079378921296 0.999950405166537 -9.40793789212957 0.00995927744721243 85.8020964090904 
! Gamma         0                21821.3529948336 0                21807.0869712002 
! Port Impedance         50               0                50               0                
26.5233333333333               0.0100580166320963 75.2398213293296 0.999949416871226 -9.59026835281121 0.999949416871548 -9.59026835281121 0.0100580166320957 85.5796419650461 
! Gamma         0                22237.7761872493 0                22223.2378884234 
! Port Impedance         50               0                50               0                
27.02                          0.0101516385987133 75.0938997256051 0.999948470789933 -9.77276526090024 0.999948470788568 -9.77276526090026 0.0101516385987135 85.3605697525968 
! Gamma         0                22654.1997467359 0                22639.3891712775 
! Port Impedance         50               0                50               0                
27.5166666666667               0.0102400477398411 74.9443311515128 0.999947569336921 -9.9554324720247 0.99994756933639 -9.95543247202468 0.0102400477398406 85.1448039044348 
! Gamma         0                23070.6236822999 0                23055.5408274725 
! Port Impedance         50               0                50               0                
28.0133333333333               0.0103231417571549 74.7912208549589 0.999946714952796 -10.1382738557304 0.99994671495217 -10.1382738557305 0.0103231417571552 84.9322314335825 
! Gamma         0                23487.047999619  0                23471.6928633084 
! Port Impedance         50               0                50               0                
28.51                          0.0104008185450085 74.6346603492195 0.999945910023215 -10.3212933622687 0.999945910024654 -10.3212933622687 0.0104008185450091 84.7227529262438 
! Gamma         0                23903.4727047201 0                23887.8452853508 
! Port Impedance         50               0                50               0                
29.0066666666667               0.0104729803221755 74.4746994582545 0.999945156837996 -10.5044949460116 0.999945156837402 -10.5044949460116 0.0104729803221758 84.5163106497239 
! Gamma         0                24319.8978056169 0                24303.9981007845 
! Port Impedance         50               0                50               0                
29.5033333333333               0.0105395255417035 74.3113382757559 0.999944457658363 -10.6878826261983 0.999944457658041 -10.6878826261983 0.0105395255417035 84.3128964718446 
! Gamma         0                24736.3233089855 0                24720.1513153245 
! Port Impedance         50               0                50               0                
30                             0.0106003536009486 74.1447312887364 0.999943814673637 -10.8714604878081 0.999943814673106 -10.8714604878081 0.0106003536009484 84.1123477356467 
! Gamma         0                25152.7492210835 0                25136.3049381388 
! Port Impedance         50               0                50               0                
