! Touchstone file exported from HFSS 2026.1.0
!        Generated:      11:51:21 AM Aug 24, 2026
!        Design:         HFSSDesign_Kinetic_debug
!        Project:        kinetic_stub_sweep
!        Setup:          Setup1
!        Solution:       Sweep_discrete_debug
!
! Variables:
!        stub_length = 2.5um
!
# GHz S MA R 50.000000
! Terminal data exported
! Port[1] = Port1
! Port[2] = Port2
0.2                            0.0128375494752696 178.16696183285  0.999917595266439 -0.0554865731857483 0.99991759526649 -0.0554865731857483 0.01283754947527 1.72206502077819 
! Gamma         0                168.706754987054 0                171.762135429003 
! Port Impedance         50               0                50               0                
0.696666666666667              0.0129060991262293 173.636872072021 0.999916712834858 -0.193277299779737 0.999916712833733 -0.193277299779737 0.0129060991262295 5.97657332841911 
! Gamma         0                587.661866219609 0                598.304775153614 
! Port Impedance         50               0                50               0                
1.19333333333333               0.0130492010754051 169.178259487639 0.999914855551691 -0.331067692561135 0.999914855550026 -0.331067692561135 0.0130492010754043 10.1596051272395 
! Gamma         0                1006.61698747128 3.10648001457223E-31 1024.84742620859 
! Port Impedance         50               0                50               0                
1.69                           0.0132646644483939 164.836984129744 0.999912020468661 -0.468856929077898 0.999912020468011 -0.468856929077898 0.0132646644483946 14.2253020120991 
! Gamma         4.71118877587139E-31 1425.57212588485 1.21786165125003E-32 1451.39009667154 
! Port Impedance         50               0                50               0                
2.18666666666667               0.0135483641923013 160.65059280034  0.999908216701655 -0.60664463314723 0.999908216701885 -0.606644633147228 0.0135483641923007 18.1361179333668 
! Gamma         1.51006470339099E-31 1844.52728860306 4.01506082385729E-41 1877.93279462    
! Port Impedance         50               0                50               0                
2.68333333333333               0.0138964274523776 156.648710779165 0.999903439990524 -0.744430263053969 0.999903439989701 -0.744430263053973 0.0138964274523784 21.8624286947257 
! Gamma         0                2263.48248276855 1.95408196518573E-32 2304.47552813141 
! Port Impedance         50               0                50               0                
3.18                           0.0143044303879984 152.852156123577 0.999897686401584 -0.882213143786207 0.999897686401618 -0.882213143786206 0.0143044303879984 25.3834175888509 
! Gamma         1.82685106754182E-30 2682.43771552391 2.15577664950159E-30 2731.01830528317 
! Port Impedance         50               0                50               0                
3.67666666666667               0.0147668561304637 149.271444700169 0.999890964035366 -1.01999270050254 0.999890964035815 -1.01999270050255 0.0147668561304633 28.6885698988273 
! Gamma         1.19338450206299E-29 3101.39299401158 2.42764428579766E-31 3157.56113415249 
! Port Impedance         50               0                50               0                
4.17333333333333               0.0152789434262218 145.910974932511 0.999883270130805 -1.1577685607867 0.99988327013111 -1.1577685607867 0.0152789434262224 31.773487945914  
! Gamma         5.99947111143544E-31 3520.34832537387 0                3584.10402328312 
! Port Impedance         50               0                50               0                
4.67                           0.0158357215235676 142.768480485461 0.99987460710054 -1.29554027491966 0.99987460709991 -1.29554027491966 0.0158357215235673 34.6404389647006 
! Gamma         0                3939.30371631961 0                4010.64697749561 
! Port Impedance         50               0                50               0                
5.16666666666667               0.0164329124841865 139.83826003233  0.999864970576661 -1.4333073070888 0.999864970577681 -1.4333073070888 0.0164329124841866 37.2951253534923 
! Gamma         0                4358.25917765862 0                4437.19001316649 
! Port Impedance         50               0                50               0                
5.66333333333333               0.0170666178409141 137.112070781105 0.999854354671048 -1.57106844265047 0.999854354671862 -1.57106844265047 0.0170666178409144 39.7457923335935 
! Gamma         0                4777.21470845937 0                4863.73312833582 
! Port Impedance         50               0                50               0                
6.16                           0.0177321993003491 134.576177237176 0.999842772193943 -1.70882370032011 0.999842772193448 -1.70882370032011 0.0177321993003485 42.0061753621853 
! Gamma         0                5196.17032004335 0                5290.27633446832 
! Port Impedance         50               0                50               0                
6.65666666666667               0.0184261958651917 132.218050294494 0.999830223240802 -1.84657278103838 0.999830223240988 -1.84657278103839 0.0184261958651916 44.0888041434296 
! Gamma         0                5615.12602485754 0                5716.81964586387 
! Port Impedance         50               0                50               0                
7.15333333333333               0.0191453329522988 130.024382692635 0.999816711316232 -1.98431497025752 0.999816711315172 -1.98431497025752 0.0191453329522985 46.0069873668513 
! Gamma         0                6034.08182496861 0                6143.36306123789 
! Port Impedance         50               0                50               0                
7.65                           0.0198869514391511 127.982800225023 0.999802235025728 -2.12204987490397 0.999802235025743 -2.12204987490396 0.0198869514391513 47.7731000251687 
! Gamma         0                6453.03772457208 0                6569.90659560687 
! Port Impedance         50               0                50               0                
8.14666666666667               0.0206483575820521 126.08025665123  0.999786799937235 -2.25977690789633 0.999786799937663 -2.25977690789633 0.0206483575820517 49.4001895329792 
! Gamma         0                6871.99373605023 0                6996.45025217094 
! Port Impedance         50               0                50               0                
8.64333333333333               0.0214274509654921 124.305391435977 0.999770405816046 -2.39749586697663 0.999770405815585 -2.39749586697663 0.0214274509654926 50.8996168300687 
! Gamma         0                7290.94986739568 0                7422.99404541754 
! Port Impedance         50               0                50               0                
9.14                           0.0222215809102862 122.645026464024 0.999753070183654 -2.53520469364057 0.99975307018386 -2.53520469364057 0.0222215809102862 52.2845641486953 
! Gamma         0                7709.9061169147  0                7849.53797275689 
! Port Impedance         50               0                50               0                
9.63666666666667               0.0230285674953347 121.087381816797 0.999734807376711 -2.67290234098574 0.999734807375275 -2.67290234098574 0.0230285674953349 53.5668135012314 
! Gamma         0                8128.8625041035  0                8276.08205439826 
! Port Impedance         50               0                50               0                
10.1333333333333               0.0238475474841425 119.625454153275 0.999715606800043 -2.81058867381139 0.999715606799456 -2.81058867381139 0.0238475474841428 54.7533684991011 
! Gamma         0                8547.81902456487 0                8702.62629168563 
! Port Impedance         50               0                50               0                
10.63                          0.0246767271063035 118.24922341891  0.999695483204584 -2.94826247201361 0.999695483204258 -2.94826247201361 0.0246767271063033 55.8542516370632 
! Gamma         0                8966.77569403041 0                9129.17069099617 
! Port Impedance         50               0                50               0                
11.1266666666667               0.0255158402882631 116.954235042589 0.999674417945459 -3.08592463911943 0.999674417945251 -3.08592463911943 0.025515840288263 56.8739156791722 
! Gamma         0                9385.73251546498 0                9555.71526478145 
! Port Impedance         50               0                50               0                
11.6233333333333               0.0263637978126043 115.733465091117 0.999652414674863 -3.22357470945948 0.999652414674475 -3.22357470945948 0.0263637978126041 57.819385489965  
! Gamma         0                9804.68949730796 0                9982.26001983735 
! Port Impedance         50               0                50               0                
12.12                          0.0272196637372689 114.580699728702 0.999629476309297 -3.3612121319371 0.999629476308926 -3.36121213193711 0.0272196637372693 58.6968760074224 
! Gamma         0                10223.6466436502 0                10408.8049628359 
! Port Impedance         50               0                50               0                
12.6166666666667               0.0280825747886654 113.49015255996  0.999605606723932 -3.49883653250264 0.999605606723249 -3.49883653250265 0.0280825747886659 59.5121743750321 
! Gamma         0                10642.603968113  0                10835.3501040889 
! Port Impedance         50               0                50               0                
13.1133333333333               0.028951798846418 112.456796290447 0.999580808811134 -3.63644729252351 0.99958080881117 -3.63644729252351 0.0289517988464178 60.2703091245069 
! Gamma         4.42388726340403E-22 11061.5614718516 0                11261.8954492858 
! Port Impedance         50               0                50               0                
13.61                          0.0298268990421863 111.477124772945 0.999555079069069 -3.77404303920667 0.999555079069823 -3.77404303920667 0.0298268990421866 60.9747891486407 
! Gamma         4.96554106534207E-34 11480.5191646364 0                11688.4410095063 
! Port Impedance         50               0                50               0                
14.1066666666667               0.0307081665619058 110.551486316109 0.999528393046599 -3.91161875312015 0.999528393046688 -3.91161875312015 0.0307081665619058 61.6252761776503 
! Gamma         0                11899.4770536265 0                12114.9867907111 
! Port Impedance         50               0                50               0                
14.6033333333333               0.0315938462663001 109.670277102637 0.99950078983335 -4.04917872745921 0.999500789833962 -4.04917872745921 0.0315938462662999 62.2313654424453 
! Gamma         0                12318.4351445819 0                12541.5327989855 
! Port Impedance         50               0                50               0                
15.1                           0.0324834679677015 108.830101928907 0.999472272906063 -4.1867225669874 0.999472272906844 -4.18672256698739 0.0324834679677017 62.7964529371177 
! Gamma         0                12737.3934466692 0                12968.0790459286 
! Port Impedance         50               0                50               0                
15.5966666666667               0.0333765905342585 108.027852367741 0.999442846392548 -4.32424976232826 0.999442846391618 -4.32424976232825 0.0333765905342587 63.3236481076022 
! Gamma         0                13156.3519645377 0                13394.6255386042 
! Port Impedance         50               0                50               0                
16.0933333333333               0.0342728045698249 107.260653418292 0.999412514863599 -4.46175985571612 0.999412514864535 -4.46175985571612 0.034272804569825 63.8158268702758 
! Gamma         0                13575.3107075468 0                13821.1722845982 
! Port Impedance         50               0                50               0                
16.59                          0.0351717646992443 106.526012480168 0.999381282078521 -4.59925237415367 0.999381282077553 -4.59925237415366 0.0351717646992442 64.2754827715252 
! Gamma         0                13994.2696798962 0                14247.7192933386 
! Port Impedance         50               0                50               0                
17.0866666666667               0.0360731137129097 105.821475617684 0.999349153433226 -4.73672685546111 0.999349153432576 -4.73672685546111 0.0360731137129098 64.705070671394  
! Gamma         0                14413.2288918595 0                14674.2665701737 
! Port Impedance         50               0                50               0                
17.5833333333333               0.0369765615325065 105.144959875411 0.999316133110996 -4.8741828703971 0.999316133112316 -4.87418287039709 0.0369765615325064 65.1066743837949 
! Gamma         0                14832.1883495294 0                15100.8141245403 
! Port Impedance         50               0                50               0                
18.08                          0.037881836190039 104.49453994882  0.999282225643537 -5.01162000673744 0.999282225643306 -5.01162000673744 0.0378818361900392 65.4822200377041 
! Gamma         0                15251.1480596734 0                15527.3619658775 
! Port Impedance         50               0                50               0                
18.5766666666667               0.0387886788944478 103.868419809224 0.999247436018248 -5.14903781460653 0.999247436018829 -5.14903781460654 0.0387886788944478 65.833504561563  
! Gamma         0                15670.1080296414 0                15953.9101012183 
! Port Impedance         50               0                50               0                
19.0733333333333               0.0396968477406607 103.2649429205   0.999211769485774 -5.28643585660105 0.999211769486337 -5.28643585660105 0.0396968477406607 66.1621853662982 
! Gamma         0                16089.0682676604 0                16380.4585371675 
! Port Impedance         50               0                50               0                
19.57                          0.0406061422161506 102.682684868326 0.999175230484818 -5.42381374944626 0.999175230484751 -5.42381374944626 0.0406061422161506 66.469687632782  
! Gamma         0                16508.0287784099 0                16807.0072846591 
! Port Impedance         50               0                50               0                
20.0666666666667               0.0415163454165628 102.120208097304 0.999137824858287 -5.56117107896944 0.999137824858991 -5.56117107896944 0.0415163454165629 66.7574497447566 
! Gamma         0                16926.9895715277 0                17233.5563488274 
! Port Impedance         50               0                50               0                
20.5633333333333               0.0424272843355915 101.576303083272 0.99909955737347 -5.69850744927549 0.999099557373514 -5.69850744927549 0.0424272843355916 67.0266820181765 
! Gamma         0                17345.9506530555 0                17660.1057401768 
! Port Impedance         50               0                50               0                
21.06                          0.0433387805939429 101.04979795     0.999060433655505 -5.83582243854645 0.999060433656209 -5.83582243854643 0.043338780593943 67.2785571729065 
! Gamma         0                17764.9120296467 0                18086.6554649037 
! Port Impedance         50               0                50               0                
21.5566666666667               0.0442506764014978 100.539637381381 0.999020459068673 -5.97311573364658 0.999020459068901 -5.97311573364653 0.0442506764014977 67.5141311513258 
! Gamma         0                18183.8737084933 0                18513.2055323516 
! Port Impedance         50               0                50               0                
22.0533333333333               0.0451628210898846 100.0448325655   0.998979639227148 -6.11038691834208 0.99897963922795 -6.11038691834206 0.0451628210898846 67.7343935978162 
! Gamma         0                18602.8356974113 0                18939.7559501221 
! Port Impedance         50               0                50               0                
22.55                          0.0460750742155148 99.5644763070229 0.998937979824456 -6.24763567439235 0.998937979824727 -6.24763567439238 0.0460750742155146 67.9402523441931 
! Gamma         0                19021.7980031498 0                19366.3067264498 
! Port Impedance         50               0                50               0                
23.0466666666667               0.0469873006549693 99.0977203007836 0.998895486814266 -6.38486159889708 0.998895486813516 -6.38486159889704 0.0469873006549693 68.1325565014225 
! Gamma         0                19440.7606328617 0                19792.8578681207 
! Port Impedance         50               0                50               0                
23.5433333333333               0.0478993832814063 98.6438130800308 0.998852165779024 -6.52206435777205 0.998852165778838 -6.52206435777205 0.0478993832814062 68.3120582044253 
! Gamma         0                19859.7235925379 0                20219.4093846119 
! Port Impedance         50               0                50               0                
24.04                          0.0488112014892331 98.2020009792102 0.9988080228998  -6.65924371798225 0.99880802289997 -6.6592437179822 0.0488112014892332 68.4795115848251 
! Gamma         0                20278.6868927324 0                20645.9612841137 
! Port Impedance         50               0                50               0                
24.5366666666667               0.0497226479231913 97.7716424547603 0.998763064136573 -6.7963992478299 0.998763064136603 -6.79639924782994 0.0497226479231914 68.6355590495793 
! Gamma         0                20697.6505368822 0                21072.5135738658 
! Port Impedance         50               0                50               0                
25.0333333333333               0.0506339287564614 97.3548353037089 0.99871727994418 -6.9335237190525 0.998717279943764 -6.93352371905251 0.0506339287564614 68.7781172581858 
! Gamma         0                21116.6145341328 0                21499.0662625737 
! Port Impedance         50               0                50               0                
25.53                          0.0515451149381375 96.9528811645179 0.998670667000267 -7.07061109154017 0.998670666999522 -7.07061109154015 0.0515451149381375 68.9058966524019 
! Gamma         0                21535.5788904156 0                21925.6193583325 
! Port Impedance         50               0                50               0                
26.0266666666667               0.0524555538568894 96.5605116513832 0.998623259728157 -7.20767268440909 0.998623259727632 -7.20767268440908 0.0524555538568896 69.0241429797983 
! Gamma         0                21954.5436127054 0                22352.1728677558 
! Port Impedance         50               0                50               0                
26.5233333333333               0.053365162277977 96.1772300691755 0.998575064507159 -7.34470829535976 0.998575064506727 -7.34470829535978 0.053365162277977 69.1333533401046 
! Gamma         0                22373.5087101542 0                22778.7268006881 
! Port Impedance         50               0                50               0                
27.02                          0.054273856335487 95.8025772975282 0.998526088051176 -7.48171757758368 0.998526088050866 -7.48171757758371 0.0542738563354869 69.2339875473049 
! Gamma         0                22792.4741886082 0                23205.2811646892 
! Port Impedance         50               0                50               0                
27.5166666666667               0.0551815539452593 95.4361130688011 0.998476337277478 -7.61870024900778 0.998476337278618 -7.61870024900777 0.0551815539452594 69.3264864331829 
! Gamma         0                23211.4400545207 0                23631.8359664389 
! Port Impedance         50               0                50               0                
28.0133333333333               0.0560881845157628 95.0774427111163 0.998425818755988 -7.75565610076181 0.998425818755147 -7.75565610076184 0.0560881845157628 69.4112450873602 
! Gamma         0                23630.4063159686 0                24058.3912161952 
! Port Impedance         50               0                50               0                
28.51                          0.0569936733279494 94.7261809417808 0.998374539539574 -7.89258483953735 0.998374539539305 -7.89258483953735 0.0569936733279493 69.4886493791449 
! Gamma         0                24049.372979461  0                24484.9469205468 
! Port Impedance         50               0                50               0                
29.0066666666667               0.0578979516100935 94.3819706835699 0.998322506607283 -8.02948626341599 0.998322506607991 -8.029486263416  0.0578979516100935 69.5590567895981 
! Gamma         0                24468.3400525474 0                24911.5030879802 
! Port Impedance         50               0                50               0                
29.5033333333333               0.058800953646297 94.0444820079722 0.99826972700286 -8.16636012772714 0.998269727002781 -8.16636012772715 0.0588009536462971 69.6227977365734 
! Gamma         0                24887.3075419127 0                25338.0597265256 
! Port Impedance         50               0                50               0                
30                             0.0597026162298907 93.7133988741313 0.998216207850538 -8.30320620918689 0.998216207850336 -8.30320620918689 0.0597026162298907 69.6801887074947 
! Gamma         0                25306.2754548246 0                25764.616844058  
! Port Impedance         50               0                50               0                
