! Touchstone file exported from HFSS 2026.1.0
!        Generated:      11:53:30 AM Aug 24, 2026
!        Design:         HFSSDesign_Kinetic_debug
!        Project:        kinetic_stub_sweep
!        Setup:          Setup1
!        Solution:       Sweep_discrete_debug
!
! Variables:
!        stub_length = 2.5um
!
# GHz S MA R 50.000000
! Terminal data exported
! Port[1] = Port1
! Port[2] = Port2
0.2                            0.0150402337606997 -179.888659927838 0.999886889287195 -0.080542236229331 0.999886889287196 -0.0805422362293308 0.0150402337606991 -0.272424544620283 
! Gamma         0                166.582845423964 0                169.093580203573 
! Port Impedance         50               0                50               0                
0.696666666666667              0.0150409812641147 -179.611949450478 0.999886878043311 -0.280558186579877 0.999886878042725 -0.280558186579876 0.015040981264114 -0.949166922682172 
! Gamma         0                580.263581025596 0                589.009307475403 
! Port Impedance         50               0                50               0                
1.19333333333333               0.0150425636625488 -179.334542107392 0.999886854238274 -0.480582635246395 0.999886854238221 -0.480582635246391 0.0150425636625489 -1.62662316310122 
! Gamma         1.16235263488903E-31 993.944325928759 2.01790641112043E-34 1008.92504504857 
! Port Impedance         50               0                50               0                
1.69                           0.0150449879387539 -179.055893155377 0.999886817764139 -0.680622238551724 0.999886817763564 -0.680622238551724 0.0150449879387539 -2.30535132172623 
! Gamma         0                1407.62508676467 5.55539273602228E-31 1428.84080026708 
! Port Impedance         50               0                50               0                
2.18666666666667               0.0150482687544417 -178.775494665357 0.999886768393029 -0.88068327615478 0.99988676839307 -0.88068327615478 0.0150482687544414 -2.98587188695217 
! Gamma         8.44548679323451E-32 1821.30587016448 1.52014808294092E-30 1848.75658047486 
! Port Impedance         50               0                50               0                
2.68333333333333               0.0150524248896139 -178.492842479119 0.999886705834926 -1.08077195676584 0.999886705834449 -1.08077195676584 0.0150524248896137 -3.66870143441329 
! Gamma         5.8096125972897E-31 2234.98668275927 3.69882022871528E-30 2268.67239301576 
! Port Impedance         50               0                50               0                
3.18                           0.0150572351105076 -178.207364375508 0.999886633409748 -1.28089463354383 0.999886633409095 -1.28089463354383 0.0150572351105075 -4.35442489157962 
! Gamma         0                2648.66753441485 1.76444813808628E-28 2688.58824163519 
! Port Impedance         50               0                50               0                
3.67666666666667               0.0150636636894897 -177.918650319827 0.999886536581355 -1.48105761449161 0.999886536580948 -1.48105761449161 0.01506366368949 -5.04346490915622 
! Gamma         4.971651670862E-24 3062.34842176679 0                3108.50414435783 
! Port Impedance         50               0                50               0                
4.17333333333333               0.0150698317561039 -177.625734175126 0.999886443638025 -1.68126729776998 0.99988644363777 -1.68126729776998 0.0150698317561044 -5.7368004204139 
! Gamma         8.43384319627091E-22 3476.02936306502 0                3528.4201028164  
! Port Impedance         50               0                50               0                
4.67                           0.0150766633422206 -177.328245904037 0.999886340652062 -1.88152994878668 0.999886340651957 -1.88152994878668 0.0150766633422201 -6.43481399353632 
! Gamma         0                3889.71035777913 0                3948.33611443244 
! Port Impedance         50               0                50               0                
5.16666666666667               0.0150843559172711 -177.025743525174 0.999886224631053 -2.08185200085595 0.999886224630673 -2.08185200085595 0.0150843559172716 -7.13796047653777 
! Gamma         2.1534191805141E-22 4303.39141568179 0                4368.25219289758 
! Port Impedance         50               0                50               0                
5.66333333333333               0.0150937500903258 -176.717989467615 0.999886082865324 -2.28223976553371 0.999886082865773 -2.28223976553371 0.0150937500903258 -7.84649006345247 
! Gamma         2.7111627396154E-22 4717.07254238552 0                4788.16835577763 
! Port Impedance         50               0                50               0                
6.16                           0.0151052296610822 -176.404587919025 0.999885909510418 -2.48269963324004 0.999885909509828 -2.48269963324004 0.0151052296610824 -8.56081134745571 
! Gamma         8.74079052061435E-21 5130.75374604032 0                5208.08460819226 
! Port Impedance         50               0                50               0                
6.65666666666667               0.0151175602846321 -176.084579919844 0.999885723155966 -2.68323813926398 0.999885723155878 -2.68323813926398 0.0151175602846322 -9.28189635868368 
! Gamma         7.85207480012306E-21 5544.43503038583 0                5628.00093852475 
! Port Impedance         50               0                50               0                
7.15333333333333               0.0151313212312021 -175.757813903807 0.99988551500553 -2.88386161069303 0.999885515005453 -2.88386161069303 0.0151313212312029 -10.0099093175787 
! Gamma         0                5958.11640580053 0                6047.91737383744 
! Port Impedance         50               0                50               0                
7.65                           0.0151464346713189 -175.423692611323 0.999885286178512 -3.08457655253573 0.999885286178974 -3.08457655253573 0.0151464346713191 -10.7454604937486 
! Gamma         3.56090193013274E-21 6371.79787377166 0                6467.83391195404 
! Port Impedance         50               0                50               0                
8.14666666666667               0.0151630284696377 -175.081828316318 0.999885034675075 -3.28538940877667 0.999885034675527 -3.28538940877667 0.0151630284696382 -11.4889505012357 
! Gamma         0                6785.47944417759 0                6887.75056476025 
! Port Impedance         50               0                50               0                
8.64333333333333               0.0151811381448831 -174.73174119664 0.999884759881954 -3.48630674498751 0.999884759882387 -3.48630674498752 0.0151811381448832 -12.2408722933347 
! Gamma         0                7199.16112391738 0                7307.66733798061 
! Port Impedance         50               0                50               0                
9.14                           0.0152009248619547 -174.37306863646 0.999884459266592 -3.68733511379669 0.999884459267087 -3.68733511379669 0.0152009248619555 -13.0016015911328 
! Gamma         0                7612.84291968381 0                7727.58424251283 
! Port Impedance         50               0                50               0                
9.63666666666667               0.0152223035896191 -174.005228960354 0.999884134024269 -3.88848111374304 0.999884134024232 -3.88848111374304 0.0152223035896193 -13.7717332671318 
! Gamma         0                8026.52483683277 0                8147.50127555796 
! Port Impedance         50               0                50               0                
10.1333333333333               0.0152455729426018 -173.627997090957 0.999883779499242 -4.0897513266938 0.999883779499205 -4.08975132669379 0.0152455729426024 -14.5515055624307 
! Gamma         0                8440.20688340379 0                8567.41845417193 
! Port Impedance         50               0                50               0                
10.63                          0.0152712638611999 -173.24113621702 0.999883387450761 -4.29115250120071 0.999883387450834 -4.29115250120072 0.0152712638611995 -15.3411687853817 
! Gamma         0                8853.88906559626 0                8987.33578069528 
! Port Impedance         50               0                50               0                
11.1266666666667               0.0153009769079809 -172.845097071788 0.999882933200307 -4.49269143701518 0.99988293320072 -4.49269143701517 0.0153009769079804 -16.1402858022429 
! Gamma         0                9267.57138877257 0                9407.2532698302  
! Port Impedance         50               0                50               0                
11.6233333333333               0.0153329024004715 -172.438632353309 0.999882444141794 -4.69437476483786 0.999882444142804 -4.69437476483785 0.0153329024004715 -16.9501171763664 
! Gamma         0                9681.25386060666 0                9827.17091848355 
! Port Impedance         50               0                50               0                
12.12                          0.015367268668647 -172.021535408838 0.999881916555157 -4.89620928741892 0.999881916554809 -4.89620928741889 0.0153672686686465 -17.7708831660008 
! Gamma         0                10094.9364865747 0                10247.0887397233 
! Port Impedance         50               0                50               0                
12.6166666666667               0.0154041778424135 -171.593521555522 0.999881348613738 -5.09820174772689 0.999881348613109 -5.09820174772688 0.0154041778424134 -18.6028819399323 
! Gamma         0                10508.6192773854 0                10667.0067410399 
! Port Impedance         50               0                50               0                
13.1133333333333               0.0154423475765843 -171.152398715004 0.999880759842109 -5.30035954661332 0.999880759841001 -5.30035954661333 0.0154423475765837 -19.4483203782228 
! Gamma         0                10922.3022327393 0                11086.9249280533 
! Port Impedance         50               0                50               0                
13.61                          0.0154820756229314 -170.697936188271 0.9998801454846  -5.50268959219334 0.999880145484701 -5.50268959219336 0.0154820756229315 -20.3074429961158 
! Gamma         0                11335.9853654371 0                11506.8433119524 
! Port Impedance         50               0                50               0                
14.1066666666667               0.0155247254330306 -170.231388623492 0.999879484187723 -5.70519855216787 0.999879484188445 -5.7051985521679 0.0155247254330312 -21.1790084808428 
! Gamma         0                11749.6686791451 0                11926.761893373  
! Port Impedance         50               0                50               0                
14.6033333333333               0.0155705576395537 -169.752712886381 0.999878771518858 -5.90789339917199 0.99987877151959 -5.90789339917202 0.0155705576395539 -22.0630739119616 
! Gamma         0                12163.3521812214 0                12346.6806870747 
! Port Impedance         50               0                50               0                
15.1                           0.015619666699223 -169.261635309921 0.999878005564902 -6.11078127991251 0.999878005564662 -6.11078127991247 0.0156196666992227 -22.9599272499015 
! Gamma         0                12577.0358788582 0                12766.5996928507 
! Port Impedance         50               0                50               0                
15.5966666666667               0.015672308492732 -168.758125634968 0.999877181831221 -6.31386934865206 0.999877181830984 -6.31386934865207 0.0156723084927323 -23.8696130623362 
! Gamma         0                12990.7197762981 0                13186.518921381  
! Port Impedance         50               0                50               0                
16.0933333333333               0.0157286798523253 -168.242150090075 0.999876296663684 -6.5171647692213 0.999876296663904 -6.51716476922134 0.0157286798523252 -24.7921794483694 
! Gamma         0                13404.4038836911 0                13606.4383831112 
! Port Impedance         50               0                50               0                
16.59                          0.0157889815108487 -167.713643173384 0.999875346261794 -6.72067483526273 0.999875346262501 -6.72067483526274 0.0157889815108489 -25.7277064971385 
! Gamma         0                13818.0882047489 0                14026.3580816821 
! Port Impedance         50               0                50               0                
17.0866666666667               0.0158534246686813 -167.172628711134 0.999874326566067 -6.92440690985953 0.999874326566395 -6.92440690985958 0.0158534246686814 -26.6761851085835 
! Gamma         0                14231.7727478095 0                14446.2780260508 
! Port Impedance         50               0                50               0                
17.5833333333333               0.0159222215906933 -166.619129890537 0.99987323339464 -7.12836840044352 0.999873233395205 -7.12836840044349 0.0159222215906935 -27.6376069103504 
! Gamma         0                14645.4575180364 0                14866.1982203665 
! Port Impedance         50               0                50               0                
18.08                          0.0159956347792566 -166.05332188201 0.999872061649661 -7.33256675228546 0.999872061650125 -7.33256675228546 0.015995634779257 -28.6118116225569 
! Gamma         0                15059.1425235511 0                15286.1186765488 
! Port Impedance         50               0                50               0                
18.5766666666667               0.0160738847879856 -165.475313021713 0.999870806768436 -7.5370095436845 0.999870806768496 -7.53700954368449 0.0160738847879858 -29.598706065655 
! Gamma         0                15472.8277704308 0                15706.039399497  
! Port Impedance         50               0                50               0                
19.0733333333333               0.0161572442570146 -164.88534915228 0.999869463208515 -7.74170436672877 0.999869463209649 -7.74170436672875 0.0161572442570153 -30.5980595811746 
! Gamma         0                15886.5132651042 0                16125.9603987254 
! Port Impedance         50               0                50               0                
19.57                          0.0162459403032011 -164.283620017875 0.999868026003176 -7.94665896660162 0.999868026003354 -7.94665896660164 0.0162459403032006 -31.6096979153278 
! Gamma         0                16300.1990137352 0                16545.8816787226 
! Port Impedance         50               0                50               0                
20.0666666666667               0.0163402401780544 -163.670431348982 0.999866489362977 -8.15188109769429 0.999866489362856 -8.15188109769432 0.0163402401780538 -32.6333308464056 
! Gamma         0                16713.8850233738 0                16965.8032471073 
! Port Impedance         50               0                50               0                
20.5633333333333               0.0164404180947611 -163.046150969048 0.999864847193382 -8.35737862133827 0.999864847193206 -8.35737862133828 0.0164404180947608 -33.668606273628 
! Gamma         0                17127.5713015828 0                17385.7251129427 
! Port Impedance         50               0                50               0                
21.06                          0.016546735268953 -162.411128533814 0.999863093404506 -8.56315948232599 0.999863093404017 -8.56315948232598 0.0165467352689533 -34.7151904308385 
! Gamma         0                17541.2578538063 0                17805.6472804377 
! Port Impedance         50               0                50               0                
21.5566666666667               0.0166594975334364 -161.765861608104 0.999861220940938 -8.76923172686046 0.999861220941368 -8.76923172686044 0.0166594975334361 -35.772601845616 
! Gamma         0                17954.9446861966 0                18225.5697600382 
! Port Impedance         50               0                50               0                
22.0533333333333               0.0167789755663682 -161.110820603714 0.999859223080453 -8.97560346187757 0.99985922308035 -8.97560346187755 0.0167789755663676 -36.8403863200414 
! Gamma         0                18368.6318075301 0                18645.4925585829 
! Port Impedance         50               0                50               0                
22.55                          0.0169054807859127 -160.446580396178 0.999857092148344 -9.1822828936323 0.999857092148398 -9.18228289363235 0.0169054807859133 -37.9179853910877 
! Gamma         0                18782.319222118  0                19065.4156848717 
! Port Impedance         50               0                50               0                
23.0466666666667               0.0170392794878839 -159.773650423535 0.999854820938622 -9.38927835009764 0.999854820938952 -9.38927835009764 0.0170392794878836 -39.0049062766595 
! Gamma         0                19196.0069376632 0                19485.3391416954 
! Port Impedance         50               0                50               0                
23.5433333333333               0.0171806927129874 -159.092717096448 0.999852401006286 -9.59659824247229 0.999852401006154 -9.59659824247229 0.0171806927129868 -40.1004793884974 
! Gamma         0                19609.6949607977 0                19905.2629403839 
! Port Impedance         50               0                50               0                
24.04                          0.0173264381202336 -158.394066897891 0.999849886004499 -9.80425415150408 0.999849886003355 -9.80425415150405 0.0173264381202337 -41.2144414051158 
! Gamma         0                20023.3832980437 0                20325.1870856792 
! Port Impedance         50               0                50               0                
24.5366666666667               0.0174797210018606 -157.686093185999 0.999847218005814 -10.0122525458138 0.999847218005545 -10.0122525458138 0.0174797210018607 -42.3384119056287 
! Gamma         0                20437.0719549853 0                20745.1115869931 
! Port Impedance         50               0                50               0                
25.0333333333333               0.0176416048669222 -156.971670467912 0.999844374779127 -10.2206015178232 0.999844374779383 -10.2206015178232 0.0176416048669216 -43.4695325677337 
! Gamma         0                20850.7609400875 0                21165.0364492696 
! Port Impedance         50               0                50               0                
25.53                          0.0178129551966866 -156.252402840868 0.999841336726529 -10.4293101177494 0.999841336726597 -10.4293101177494 0.0178129551966867 -44.6062173946294 
! Gamma         0                21264.4502582384 0                21584.9616826889 
! Port Impedance         50               0                50               0                
26.0266666666667               0.0179988987161881 -155.536130999071 0.999838006702098 -10.6383896266938 0.999838006701077 -10.6383896266938 0.0179988987161885 -45.7406482543177 
! Gamma         0                21678.1399177703 0                22004.8872921921 
! Port Impedance         50               0                50               0                
26.5233333333333               0.0181944638098959 -154.816433065787 0.999834467042461 -10.8478467810128 0.99983446704305 -10.8478467810128 0.0181944638098957 -46.8792604962395 
! Gamma         0                22091.8299236814 0                22424.8132880311 
! Port Impedance         50               0                50               0                
27.02                          0.0183999431341734 -154.094108431078 0.999830706715919 -11.0576908574183 0.999830706716525 -11.0576908574182 0.0183999431341724 -48.0212732837578 
! Gamma         0                22505.5202835538 0                22844.7396733821 
! Port Impedance         50               0                50               0                
27.5166666666667               0.0186156751419388 -153.370118678964 0.999826713305549 -11.2679311019287 0.999826713305182 -11.2679311019287 0.0186156751419391 -49.1657435248946 
! Gamma         0                22919.2110034999 0                23264.6664591789 
! Port Impedance         50               0                50               0                
28.0133333333333               0.0188419625205104 -152.645325285412 0.999822474466701 -11.4785769948972 0.999822474466359 -11.4785769948972 0.0188419625205111 -50.3118287043836 
! Gamma         0                23332.9020907018 0                23684.5936502424 
! Port Impedance         50               0                50               0                
28.51                          0.0190791291563065 -151.920667374486 0.999817976848516 -11.689638100916 0.999817976849693 -11.689638100916 0.0190791291563065 -51.4586088273469 
! Gamma         0                23746.5935508844 0                24104.5212553036 
! Port Impedance         50               0                50               0                
29.0066666666667               0.0193274864469437 -151.197057144501 0.999813206687902 -11.9011241234981 0.999813206687999 -11.9011241234981 0.0193274864469436 -52.6051911024962 
! Gamma         0                24160.2853912122 0                24524.4492815987 
! Port Impedance         50               0                50               0                
29.5033333333333               0.0195873429073333 -150.475400178423 0.999808149595414 -12.1130449043159 0.999808149595839 -12.1130449043158 0.0195873429073337 -53.7506896302108 
! Gamma         0                24573.9776182849 0                24944.3777360736 
! Port Impedance         50               0                50               0                
30                             0.0198590040680346 -149.756603352557 0.99980279053276 -12.3254104090341 0.999802790533092 -12.3254104090341 0.0198590040680348 -54.8942174655112 
! Gamma         0                24987.6702392783 0                25364.3066265785 
! Port Impedance         50               0                50               0                
