! Touchstone file exported from HFSS 2026.1.0
!        Generated:      11:53:04 AM Aug 24, 2026
!        Design:         HFSSDesign_Kinetic_debug
!        Project:        kinetic_stub_sweep
!        Setup:          Setup1
!        Solution:       Sweep_discrete_debug
!
! Variables:
!        stub_length = 2.5um
!
# GHz S MA R 50.000000
! Terminal data exported
! Port[1] = Port1
! Port[2] = Port2
0.2                            0.0113934896767272 179.804008314526 0.999935092089976 -0.0762706778902303 0.999935092089974 -0.0762706778902305 0.0113934896767269 0.0434503296933644 
! Gamma         0                166.942351491881 0                168.639264208993 
! Port Impedance         50               0                50               0                
0.696666666666667              0.0113936352692872 179.317501283203 0.999935090431457 -0.265677691650008 0.999935090430641 -0.265677691650008 0.0113936352692877 0.151143333496668 
! Gamma         0                581.515860527958 0                587.426773354775 
! Port Impedance         50               0                50               0                
1.19333333333333               0.0113937417475115 178.831743075831 0.999935089217478 -0.455090397054285 0.999935089218103 -0.455090397054287 0.0113937417475117 0.258076130060751 
! Gamma         0                996.089378973416 8.22766585278421E-31 1006.21429255982 
! Port Impedance         50               0                50               0                
1.69                           0.0113942115262462 178.347414951182 0.999935083864607 -0.644513873120936 0.999935083864983 -0.644513873120939 0.011394211526247 0.363557302576273 
! Gamma         0                1410.66291353636 1.00905146070367E-30 1425.00182899553 
! Port Impedance         50               0                50               0                
2.18666666666667               0.0113949072170774 177.865061634235 0.99993507593705 -0.833952131672989 0.999935075937331 -0.833952131672991 0.0113949072170768 0.4670341024192  
! Gamma         0                1825.23647092483 1.10726277448116E-30 1843.78938983326 
! Port Impedance         50               0                50               0                
2.68333333333333               0.0113955030119355 177.385251482444 0.999935069147621 -1.02340963196173 0.999935069147469 -1.02340963196174 0.0113955030119345 0.567929253632931 
! Gamma         0                2239.81005784679 0                2262.57698224428 
! Port Impedance         50               0                50               0                
3.18                           0.0113957976039912 176.908545332447 0.999935065789758 -1.21289074911298 0.99993506579076 -1.21289074911297 0.011395797603991 0.665673169327232 
! Gamma         3.19941087486445E-30 2654.38368101016 0                2681.36461092385 
! Port Impedance         50               0                50               0                
3.67666666666667               0.0113969419081356 176.435674753023 0.999935052748441 -1.40239983990615 0.999935052748556 -1.40239983990615 0.0113969419081357 0.759525567165398 
! Gamma         0                3068.95734944493 0                3100.15229551208 
! Port Impedance         50               0                50               0                
4.17333333333333               0.011397977245044 175.967251659876 0.99993504094756 -1.59194126586333 0.999935040947483 -1.59194126586333 0.0113979772450442 0.848865808397757 
! Gamma         0                3483.53106392349 0                3518.94001905629 
! Port Impedance         50               0                50               0                
4.67                           0.0113995986441054 175.503848388409 0.999935022463883 -1.78151938582598 0.99993502246479 -1.78151938582598 0.0113995986441058 0.933112839939429 
! Gamma         0                3898.10483377062 0                3937.72781154138 
! Port Impedance         50               0                50               0                
5.16666666666667               0.0114006957641547 175.045888922611 0.999935009956616 -1.97113873269715 0.99993500995577 -1.97113873269715 0.0114006957641555 1.01183361199461 
! Gamma         0                4312.67866991206 0                4356.51566806933 
! Port Impedance         50               0                50               0                
5.66333333333333               0.0114011960020777 174.594028266998 0.999935004252546 -2.16080359472986 0.999935004252729 -2.16080359472986 0.0114011960020779 1.08436454354211 
! Gamma         0                4727.25257448461 0                4775.30359953479 
! Port Impedance         50               0                50               0                
6.16                           0.0114029068512261 174.149488298695 0.999934984744205 -2.35051837061291 0.999934984744153 -2.35051837061291 0.0114029068512267 1.14947496007956 
! Gamma         0                5141.82655654643 0                5194.09161429328 
! Port Impedance         50               0                50               0                
6.65666666666667               0.0114046596870104 173.712373518169 0.999934964753955 -2.54028753900864 0.999934964753885 -2.54028753900864 0.0114046596870106 1.20705140381403 
! Gamma         0                5556.40062105605 0                5612.87971985253 
! Port Impedance         50               0                50               0                
7.15333333333333               0.0114062939456068 173.283277219661 0.99993494611301 -2.73011562892203 0.999934946113408 -2.73011562892203 0.011406293945607 1.25649152249524 
! Gamma         0                5970.97477524312 0                6031.66791625668 
! Port Impedance         50               0                50               0                
7.65                           0.0114079653057139 172.862770554912 0.999934927046628 -2.92000703702609 0.999934927046465 -2.92000703702609 0.0114079653057143 1.29721537103575 
! Gamma         0                6385.54902818086 1.95723906713187E-20 6450.45622022499 
! Port Impedance         50               0                50               0                
8.14666666666667               0.0114096153624016 172.451487995406 0.999934908220393 -3.10996626255907 0.999934908219949 -3.10996626255907 0.0114096153624013 1.32857947947608 
! Gamma         0                6800.12338146336 1.27528110014729E-26 6869.24463501757 
! Port Impedance         50               0                50               0                
8.64333333333333               0.0114110487835357 172.049966906439 0.999934891863104 -3.2999978016425 0.999934891863486 -3.29999780164251 0.0114110487835352 1.3500374902762  
! Gamma         0                7214.69784529999 0                7288.03316243629 
! Port Impedance         50               0                50               0                
9.14                           0.0114124107754063 171.658792531057 0.999934876319682 -3.49010621168334 0.999934876319517 -3.49010621168334 0.0114124107754059 1.36099504557665 
! Gamma         0                7629.2724281626  0                7706.82181944967 
! Port Impedance         50               0                50               0                
9.63666666666667               0.0114136489598974 171.278612671614 0.99993486218729 -3.68029599656046 0.999934862187196 -3.68029599656046 0.0114136489598973 1.36079533526507 
! Gamma         0                8043.84713164393 0                8125.61060758414 
! Port Impedance         50               0                50               0                
10.1333333333333               0.011414618406807 170.909936050442 0.99993485112122 -3.87057177286276 0.999934851121029 -3.87057177286276 0.0114146184068077 1.34892040383171 
! Gamma         1.54093171458671E-23 8458.42196716067 0                8544.39953341413 
! Port Impedance         50               0                50               0                
10.63                          0.0114154074891223 170.55340958743  0.999934842113036 -4.06093809373458 0.999934842113272 -4.06093809373458 0.0114154074891218 1.32471422510183 
! Gamma         2.73691775524885E-22 8872.99693764785 0                8963.18860690016 
! Port Impedance         50               0                50               0                
11.1266666666667               0.0114158718304271 170.209571456087 0.999934836812169 -4.25139956180954 0.99993483681194 -4.25139956180956 0.0114158718304278 1.2876294202934  
! Gamma         0                9287.57205376311 0                9381.97783186921 
! Port Impedance         50               0                50               0                
11.6233333333333               0.0114144949032895 169.878895544422 0.999934852530585 -4.44196083172215 0.999934852531326 -4.44196083172215 0.0114144949032888 1.237182792134   
! Gamma         7.78921184290087E-22 9702.14731773554 0                9800.76721801182 
! Port Impedance         50               0                50               0                
12.12                          0.0114116835701033 169.561984840576 0.999934884619389 -4.63262653901768 0.999934884618695 -4.63262653901768 0.0114116835701027 1.17276208138948 
! Gamma         0                10116.722741267  0                10219.5567725936 
! Port Impedance         50               0                50               0                
12.6166666666667               0.0114084682152616 169.259609923748 0.999934921308567 -4.82340141747865 0.999934921309179 -4.82340141747865 0.011408468215261 1.09358724129575 
! Gamma         0                10531.2983272946 0                10638.3465053911 
! Port Impedance         50               0                50               0                
13.1133333333333               0.0114051120023389 168.972779311263 0.999934959594767 -5.0142901270045 0.999934959595192 -5.0142901270045 0.0114051120023391 0.998640434727947 
! Gamma         0                10945.8740830608 0                11057.1364155526 
! Port Impedance         50               0                50               0                
13.61                          0.0114043485334251 168.704825403105 0.999934968303204 -5.20529706014908 0.999934968302203 -5.20529706014913 0.0114043485334245 0.884580476597902 
! Gamma         0                11360.4500167335 0                11475.9265165532 
! Port Impedance         50               0                50               0                
14.1066666666667               0.0114031393207103 168.453520719849 0.999934982093532 -5.39642737733896 0.999934982092772 -5.39642737733891 0.0114031393207104 0.753624525473444 
! Gamma         0                11775.0261343939 0                11894.7168131693 
! Port Impedance         50               0                50               0                
14.6033333333333               0.0114014940395959 168.219500006562 0.999935000854681 -5.58768591991058 0.999935000854094 -5.58768591991061 0.0114014940395962 0.605128153616866 
! Gamma         0                12189.6024418223 0                12313.5073147469 
! Port Impedance         50               0                50               0                
15.1                           0.0113993552979586 168.003384357241 0.999935025238397 -5.77907750317189 0.999935025238675 -5.77907750317187 0.0113993552979581 0.438460636415299 
! Gamma         0                12604.1789462046 0                12732.2980256869 
! Port Impedance         50               0                50               0                
15.5966666666667               0.0113967232116857 167.805788121159 0.99993505524129 -5.9706070383119 0.999935055240925 -5.9706070383119 0.0113967232116857 0.252997802216686 
! Gamma         0                13018.7556552165 0                13151.0889563437 
! Port Impedance         50               0                50               0                
16.0933333333333               0.0113935644066717 167.627369249846 0.999935091239569 -6.16227944816508 0.999935091237395 -6.16227944816511 0.0113935644066718 0.0480718538255631 
! Gamma         0                13433.332574524  0                13569.8801107624 
! Port Impedance         50               0                50               0                
16.59                          0.0113898702284327 167.468770477493 0.999935133324164 -6.35409968879163 0.99993513332433 -6.35409968879162 0.0113898702284324 -0.176969855078754 
! Gamma         0                13847.9097108103 0                13988.6714969558 
! Port Impedance         50               0                50               0                
17.0866666666667               0.0113856802728409 167.33065651906  0.999935181041593 -6.54607278867792 0.999935181041635 -6.54607278867794 0.0113856802728412 -0.422802096415299 
! Gamma         0                14262.4870703587 0                14407.4631254168 
! Port Impedance         50               0                50               0                
17.5833333333333               0.0113809015041221 167.213662757992 0.999935235443242 -6.73820377415421 0.999935235443264 -6.73820377415419 0.0113809015041227 -0.690070306301087 
! Gamma         0                14677.0646620341 0                14826.2549974476 
! Port Impedance         50               0                50               0                
18.08                          0.0113756108041626 167.118492968108 0.999935295646041 -6.93049772694342 0.999935295646138 -6.93049772694341 0.0113756108041627 -0.979488421993137 
! Gamma         0                15091.6424901299 0                15245.0471245014 
! Port Impedance         50               0                50               0                
18.5766666666667               0.0113697719665892 167.045809909842 0.999935362053838 -7.12295979447896 0.999935362053526 -7.12295979447896 0.0113697719665896 -1.29172949880096 
! Gamma         0                15506.2205631861 0                15663.8395113078 
! Port Impedance         50               0                50               0                
19.0733333333333               0.0113634425109521 166.996328972406 0.999935434002784 -7.31559515834205 0.999935434002749 -7.31559515834205 0.0113634425109518 -1.62751928909089 
! Gamma         0                15920.7988856196 0                16082.6321674601 
! Port Impedance         50               0                50               0                
19.57                          0.0113566060935203 166.970730347117 0.999935511669819 -7.50840901364497 0.999935511669473 -7.50840901364497 0.0113566060935202 -1.98754837440988 
! Gamma         0                16335.3774661567 0                16501.4250979148 
! Port Impedance         50               0                50               0                
20.0666666666667               0.0113493076636682 166.969729136449 0.99993559453405 -7.70140665579774 0.999935594533443 -7.70140665579774 0.0113493076636672 -2.37254244804197 
! Gamma         0                16749.9563112581 0                16920.2183116017 
! Port Impedance         50               0                50               0                
20.5633333333333               0.0113415780022862 166.994058939433 0.999935682235508 -7.89459340441288 0.999935682236135 -7.8945934044129 0.0113415780022862 -2.78324574825967 
! Gamma         0                17164.5354267601 0                17339.0118139582 
! Port Impedance         50               0                50               0                
21.06                          0.011333475778685 167.044447902048 0.999935774101193 -8.08797461768418 0.999935774100615 -8.08797461768419 0.0113334757786847 -3.22039713741474 
! Gamma         0                17579.1148192762 0                17757.8056137572 
! Port Impedance         50               0                50               0                
21.5566666666667               0.011325041790845 167.121624618319 0.99993586965794 -8.28155573334625 0.999935869657795 -8.28155573334622 0.0113250417908448 -3.68473608501315 
! Gamma         0                17993.6944967986 0                18176.5997175902 
! Port Impedance         50               0                50               0                
22.0533333333333               0.0113163342895722 167.226350827654 0.999935968239457 -8.47534222071759 0.999935968238724 -8.47534222071759 0.0113163342895717 -4.177035269088  
! Gamma         0                18408.2744648498 0                18595.3941310805 
! Port Impedance         50               0                50               0                
22.55                          0.0113074575268317 167.359367994324 0.999936068658565 -8.66933961589123 0.999936068658499 -8.66933961589127 0.0113074575268314 -4.69804722610302 
! Gamma         0                18822.8547301955 0                19014.1888648255 
! Port Impedance         50               0                50               0                
23.0466666666667               0.0112958146140151 167.522680451281 0.99993620025124 -8.86355365950792 0.999936200250558 -8.86355365950793 0.011295814614015 -5.24978777029979 
! Gamma         0                19237.4352997261 0                19432.9839218619 
! Port Impedance         50               0                50               0                
23.5433333333333               0.0112809230101941 167.717748652401 0.999936368363024 -9.05799010168769 0.999936368364028 -9.05799010168768 0.0112809230101942 -5.83372885577455 
! Gamma         0                19652.016181474  3.26544874301846E-27 19851.7793118754 
! Port Impedance         50               0                50               0                
24.04                          0.0112660515895303 167.944114148603 0.999936536026835 -9.25265448507966 0.999936536027071 -9.25265448507967 0.0112660515895304 -6.44942311876392 
! Gamma         0                20066.5973795335 2.71076443891815E-27 20270.5750418486 
! Port Impedance         50               0                50               0                
24.5366666666667               0.0112570967393195 168.208727097827 0.9999366368788  -9.44755179450195 0.999936636879317 -9.44755179450191 0.0112570967393192 -7.10383068683211 
! Gamma         0                20481.1789024903 7.34969206136615E-27 20689.3711189793 
! Port Impedance         50               0                50               0                
25.0333333333333               0.0112487623515475 168.506336479712 0.999936730671466 -9.64268866769008 0.999936730671085 -9.64268866769007 0.0112487623515473 -7.79171381508913 
! Gamma         0                20895.760756156  7.48667511302966E-21 21108.167548749  
! Port Impedance         50               0                50               0                
25.53                          0.0112409952527243 168.83741792621  0.999936818016664 -9.83807103891024 0.999936818017103 -9.83807103891025 0.0112409952527233 -8.51356000402895 
! Gamma         0                21310.342948205  0                21526.9643407397 
! Port Impedance         50               0                50               0                
26.0266666666667               0.0112339688888034 169.202722177768 0.999936896980139 -10.0337048849868 0.999936896980876 -10.0337048849868 0.0112339688888029 -9.27013194774312 
! Gamma         0                21724.9254835769 1.44213482025951E-22 21945.7614998935 
! Port Impedance         50               0                50               0                
26.5233333333333               0.0112278773852176 169.602918527701 0.999936965398534 -10.2295962525482 0.999936965397526 -10.2295962525482 0.011227877385218 -10.0621110327975 
! Gamma         0                22139.5083711156 2.82365780257422E-21 22364.5590354713 
! Port Impedance         50               0                50               0                
27.02                          0.0112229337410568 170.038694404383 0.999937020895499 -10.4257512599879 0.999937020896378 -10.4257512599879 0.0112229337410563 -10.8901969243626 
! Gamma         0                22554.0916156238 4.69363586687476E-23 22783.3569529261 
! Port Impedance         50               0                50               0                
27.5166666666667               0.0112193625398143 170.510671620318 0.999937060971747 -10.6221761158574 0.999937060971131 -10.6221761158573 0.0112193625398147 -11.7550238520305 
! Gamma         0                22968.6752250254 2.21263448896428E-20 23202.1552592721 
! Port Impedance         50               0                50               0                
28.0133333333333               0.0112174344572347 171.019404218141 0.99993708260316 -10.8188770499969 0.999937082602438 -10.8188770499969 0.0112174344572345 -12.6571583181357 
! Gamma         0                23383.2592057503 0                23620.9539642683 
! Port Impedance         50               0                50               0                
28.51                          0.011217396861992 171.565435393073 0.999937083024801 -11.0158604272361 0.999937083024293 -11.0158604272361 0.0112173968619926 -13.5971562475478 
! Gamma         0                23797.8435640273 0                24039.7530716053 
! Port Impedance         50               0                50               0                
29.0066666666667               0.0112195609255134 172.149193872846 0.999937058745383 -11.2131326513147 0.999937058745655 -11.2131326513148 0.0112195609255131 -14.5754591754754 
! Gamma         0                24212.4283064279 0                24458.5525904126 
! Port Impedance         50               0                50               0                
29.5033333333333               0.0112242287998103 172.771044324963 0.999937006360206 -11.410700220024 0.999937006359444 -11.4107002200241 0.0112242287998106 -15.5924447650144 
! Gamma         0                24627.0134401177 0                24877.3525273545 
! Port Impedance         50               0                50               0                
30                             0.0112317441263183 173.431243501992 0.999936921973037 -11.6085697053438 0.999936921972006 -11.6085697053438 0.0112317441263181 -16.6483829126796 
! Gamma         0                25041.5989716572 0                25296.152890577  
! Port Impedance         50               0                50               0                
