! Touchstone file exported from HFSS 2026.1.0
!        Generated:      11:50:12 AM Aug 24, 2026
!        Design:         HFSSDesign_Kinetic_debug
!        Project:        kinetic_stub_sweep
!        Setup:          Setup1
!        Solution:       Sweep_discrete_debug
!
! Variables:
!        stub_length = 2.5um
!
# GHz S MA R 50.000000
! Terminal data exported
! Port[1] = Port1
! Port[2] = Port2
0.2                            0.0145551008372326 -0.73715141319467 0.99989406890909 -0.0891388956390771 0.99989406890913 -0.089138895639077 0.0145551008372316 -179.441126378083 
! Gamma         0                173.888598857112 0                171.000911418778 
! Port Impedance         50               0                50               0                
0.696666666666667              0.0145653464830284 -2.56714273587235 0.999893919713959 -0.310506096800431 0.999893919714844 -0.31050609680043 0.0145653464830285 -178.053869457729 
! Gamma         0                605.711956399827 0                595.653178038615 
! Port Impedance         50               0                50               0                
1.19333333333333               0.0145865378295758 -4.39502128609963 0.999893610797734 -0.531888462122418 0.99989361079775 -0.531888462122417 0.0145865378295756 -176.668755638145 
! Gamma         0                1037.53532628644 1.50044769844026E-30 1020.30545550344 
! Port Impedance         50               0                50               0                
1.69                           0.0146188385736559 -6.21941284587293 0.999893139070229 -0.753298346511698 0.99989313906927 -0.753298346511698 0.0146188385736557 -175.28718384715 
! Gamma         1.20684633813091E-32 1469.35871731711 0                1444.95775154482 
! Port Impedance         50               0                50               0                
2.18666666666667               0.0146621921913232 -8.03889417047115 0.999892504282891 -0.974746785382828 0.999892504281924 -0.974746785382826 0.0146621921913232 -173.910599400295 
! Gamma         1.52983574077564E-39 1901.18213829194 1.39405393518803E-36 1869.61007389426 
! Port Impedance         50               0                50               0                
2.68333333333333               0.014717023645333 -9.85185962534251 0.999891698743724 -1.196245172067  0.999891698742136 -1.196245172067  0.0147170236453331 -172.540630718792 
! Gamma         2.50649124477331E-32 2333.00559801094 5.7230524525656E-30 2294.26243028318 
! Port Impedance         50               0                50               0                
3.18                           0.014782097860762 -11.6578306000091 0.999890738822889 -1.41780516941245 0.999890738821942 -1.41780516941245 0.0147820978607623 -171.177779738816 
! Gamma         7.85103621300402E-33 2764.82910527404 5.41338036478155E-32 2718.91482844293 
! Port Impedance         50               0                50               0                
3.67666666666667               0.0148580102706279 -13.455324517137 0.999889613673065 -1.63943826916671 0.999889613672591 -1.63943826916671 0.0148580102706268 -169.823552021195 
! Gamma         0                3196.65266505411 3.49847773545498E-29 3143.5672761047  
! Port Impedance         50               0                50               0                
4.17333333333333               0.0149459393326107 -15.2420416101399 0.999888303211342 -1.86115572623643 0.99988830320995 -1.86115572623643 0.0149459393326102 -168.480269842332 
! Gamma         0                3628.47629743001 4.15681263114914E-30 3568.21978099956 
! Port Impedance         50               0                50               0                
4.67                           0.0150447865982977 -17.0176614906593 0.9998868207938  -2.08296915478589 0.99988682079288 -2.08296915478589 0.0150447865982978 -167.148276818913 
! Gamma         0                4060.29999893159 0                3992.87235046315 
! Port Impedance         50               0                50               0                
5.16666666666667               0.015154799400333 -18.7807825020906 0.999885159433758 -2.30489005891701 0.999885159433021 -2.30489005891701 0.015154799400333 -165.828997615744 
! Gamma         0                4492.12378607211 0                4417.52499550849 
! Port Impedance         50               0                50               0                
5.66333333333333               0.0152760838264995 -20.5302706717804 0.999883313823774 -2.52693004975233 0.999883313823488 -2.52693004975233 0.0152760838264993 -164.523589427724 
! Gamma         0                4923.94766166809 0                4842.17771699713 
! Port Impedance         50               0                50               0                
6.16                           0.0154085766883541 -22.2651159612834 0.999881280835127 -2.74910070395123 0.999881280835073 -2.74910070395123 0.0154085766883544 -163.233085446619 
! Gamma         0                5355.77163934262 0                5266.8305304761  
! Port Impedance         50               0                50               0                
6.65666666666667               0.0155525845171545 -23.9840200481765 0.99987905124291 -2.9714138299226 0.999879051243326 -2.97141382992261 0.015552584517155 -161.95880761167 
! Gamma         0                5787.59572818076 0                5691.48343166821 
! Port Impedance         50               0                50               0                
7.15333333333333               0.0157075881263972 -25.6867814515403 0.9998766282276  -3.19388106089462 0.999876628227057 -3.19388106089462 0.0157075881263973 -160.700980670249 
! Gamma         0                6219.41993058593 0                6116.13644291592 
! Port Impedance         50               0                50               0                
7.65                           0.0158739648456305 -27.3720667418877 0.999874000682222 -3.4165141518224 0.99987400068203 -3.4165141518224 0.015873964845631 -159.460961561758 
! Gamma         0                6651.2442628741  0                6540.78956871826 
! Port Impedance         50               0                50               0                
8.14666666666667               0.0160518142942107 -29.039089178069 0.999871161329633 -3.63932515447231 0.999871161328828 -3.63932515447231 0.0160518142942102 -158.239561130875 
! Gamma         0                7083.06872795965 0                6965.4428078608  
! Port Impedance         50               0                50               0                
8.64333333333333               0.0162410787968233 -30.6872075593523 0.999868104982115 -3.86232590579084 0.999868104981106 -3.86232590579085 0.0162410787968236 -157.03744425223 
! Gamma         0                7514.89334077583 0                7390.09617826385 
! Port Impedance         50               0                50               0                
9.14                           0.0164418836481644 -32.3157254059479 0.9998648230944  -4.08552843802595 0.999864823094905 -4.08552843802595 0.0164418836481645 -155.855331470104 
! Gamma         0                7946.71810368844 0                7814.74967742944 
! Port Impedance         50               0                50               0                
9.63666666666667               0.0166541836787811 -33.9241885372137 0.999861309465156 -4.30894487015277 0.999861309465774 -4.30894487015279 0.0166541836787817 -154.693701203093 
! Gamma         0                8378.54302969635 0                8239.4033234013  
! Port Impedance         50               0                50               0                
10.1333333333333               0.0168781750444585 -35.511867209705 0.999857553458168 -4.53258742023038 0.999857553457984 -4.53258742023036 0.016878175044459 -153.553307630757 
! Gamma         0                8810.36812701458 0                8664.05711640186 
! Port Impedance         50               0                50               0                
10.63                          0.0171137895689367 -37.078560150296 0.99985354837927 -4.75646829158672 0.999853548379243 -4.75646829158674 0.0171137895689364 -152.434376432877 
! Gamma         0                9242.19340313609 0                9088.71106999724 
! Port Impedance         50               0                50               0                
11.1266666666667               0.017360936242446 -38.624401240422 0.999849287589181 -4.98060018568887 0.999849287589374 -4.98060018568887 0.017360936242446 -151.336799130956 
! Gamma         0                9674.01886723046 0                9513.36518749311 
! Port Impedance         50               0                50               0                
11.6233333333333               0.0176179478815049 -40.1538857525226 0.999844791911506 -5.20499698123322 0.999844791911387 -5.20499698123323 0.0176179478815039 -150.256108209945 
! Gamma         0                10105.8445293151 0                9938.01947937181 
! Port Impedance         50               0                50               0                
12.12                          0.0178897679061428 -41.656259664026 0.999839965296344 -5.42967165187937 0.999839965296814 -5.42967165187933 0.0178897679061429 -149.203083639731 
! Gamma         0                10537.6703969455 0                10362.6739514683 
! Port Impedance         50               0                50               0                
12.6166666666667               0.01817410375198 -43.1355263522355 0.999834837337535 -5.65463564385139 0.999834837336571 -5.65463564385139 0.0181741037519795 -148.173744935467 
! Gamma         0                10969.4964803744 0                10787.3286103449 
! Port Impedance         50               0                50               0                
13.1133333333333               0.0184705891743759 -44.5924423305015 0.999829404116514 -5.87990155847789 0.999829404116081 -5.87990155847791 0.018470589174375 -147.167360786454 
! Gamma         0                11401.3227843076 0                11211.9834672704 
! Port Impedance         50               0                50               0                
13.61                          0.0187793848761722 -46.0267437053967 0.999823651802194 -6.10548237553969 0.999823651802793 -6.10548237553969 0.0187793848761722 -146.184221045682 
! Gamma         0                11833.1493228945 0                11636.638529628  
! Port Impedance         50               0                50               0                
14.1066666666667               0.0191006403027661 -47.4383130871459 0.999817566128834 -6.33139125716261 0.999817566129074 -6.33139125716265 0.0191006403027661 -145.224469427178 
! Gamma         0                12264.9761024132 0                12061.2938004999 
! Port Impedance         50               0                50               0                
14.6033333333333               0.0194344088009411 -48.8272701261481 0.999811134042987 -6.55764140069029 0.999811134041221 -6.55764140069026 0.019434408800941 -144.288012675233 
! Gamma         0                12696.8031312473 0                12485.9492932486 
! Port Impedance         50               0                50               0                
15.1                           0.0197819932742031 -50.1911117030914 0.999804317224848 -6.78424719749602 0.999804317225503 -6.784247197496  0.0197819932742035 -143.3773826919  
! Gamma         0                13128.6304179903 0                12910.6050140726 
! Port Impedance         50               0                50               0                
15.5966666666667               0.0201446713699393 -51.5272677218118 0.999797075518987 -7.01122329461407 0.999797075518065 -7.01122329461403 0.020144671369939 -142.495178867417 
! Gamma         0                13560.4579735552 0                13335.2609680363 
! Port Impedance         50               0                50               0                
16.0933333333333               0.0205203053283768 -52.8407083156591 0.999789436365105 -7.23858161463034 0.999789436367081 -7.23858161463036 0.020520305328377 -141.636454913602 
! Gamma         0                13992.2858049633 0                13759.9171645204 
! Port Impedance         50               0                50               0                
16.59                          0.0209090255701286 -54.1316292191955 0.999781382428914 -7.46633602635013 0.999781382427151 -7.46633602635011 0.0209090255701282 -140.801042833504 
! Gamma         0                14424.11392061   0                14184.5736126123 
! Port Impedance         50               0                50               0                
17.0866666666667               0.0213110095981313 -55.4001442913896 0.999772894647102 -7.69450058395197 0.999772894645965 -7.69450058395195 0.0213110095981311 -139.988856876515 
! Gamma         0                14855.9423307901 0                14609.2303174439 
! Port Impedance         50               0                50               0                
17.5833333333333               0.0217263883957035 -56.6465313257171 0.999763954164305 -7.9230894572607 0.999763954165338 -7.92308945726071 0.021726388395703 -139.199647588804 
! Gamma         0                15287.7710440845 0                15033.8872896967 
! Port Impedance         50               0                50               0                
18.08                          0.0221553522276151 -57.8709767044425 0.999754540058572 -8.15211707401178 0.999754540058515 -8.15211707401178 0.0221553522276149 -138.433257443581 
! Gamma         0                15719.6000689482 0                15458.5445332623 
! Port Impedance         50               0                50               0                
18.5766666666667               0.0225980218516837 -59.0738789480789 0.999744632097925 -8.3815979822618 0.9997446320977  -8.38159798226182 0.022598021851684 -137.689317016443 
! Gamma         0                16151.429412235  0                15883.2020604421 
! Port Impedance         50               0                50               0                
19.0733333333333               0.0230546158148806 -60.2553954078234 0.999734207022176 -8.6115469662745 0.999734207021545 -8.61154696627447 0.0230546158148809 -136.967698524726 
! Gamma         0                16583.2590861268 0                16307.8598762394 
! Port Impedance         50               0                50               0                
19.57                          0.02352530386818 -61.4158914401538 0.999723241741427 -8.84197902838991 0.99972324174135 -8.84197902838987 0.0235253038681802 -136.268066616626 
! Gamma         0                17015.0890965172 0                16732.5179870964 
! Port Impedance         50               0                50               0                
20.0666666666667               0.0240102656346161 -62.5557040285743 0.999711712017469 -9.07290930434021 0.999711712016725 -9.07290930434019 0.0240102656346161 -135.590114580106 
! Gamma         0                17446.9194529139 0                17157.1764036526 
! Port Impedance         50               0                50               0                
20.5633333333333               0.024509715270574 -63.6751012132171 0.999699591806006 -9.30435318931093 0.999699591806266 -9.30435318931093 0.0245097152705746 -134.933605165404 
! Gamma         0                17878.7501665698 0                17581.8351322254 
! Port Impedance         50               0                50               0                
21.06                          0.0250238375050924 -64.7745107956945 0.999686854748748 -9.53632632694337 0.999686854747824 -9.53632632694343 0.025023837505093 -134.298141858193 
! Gamma         0                18310.5812423097 0                18006.494180785  
! Port Impedance         50               0                50               0                
21.5566666666667               0.0255514618401247 -65.8612181813687 0.999673508100121 -9.76884910519244 0.999673508100751 -9.76884910519246 0.0255514618401243 -133.676480029017 
! Gamma         0                18742.4126923143 0                18431.1535568373 
! Port Impedance         50               0                50               0                
22.0533333333333               0.0260934999277678 -66.9326537504539 0.9996595066634  -10.0019362228376 0.999659506662407 -10.0019362228375 0.0260934999277676 -133.071218695222 
! Gamma         0                19174.2445236387 0                18855.8132670441 
! Port Impedance         50               0                50               0                
22.55                          0.0266510016246311 -67.9851087765644 0.999644798972052 -10.2356014341481 0.999644798972582 -10.2356014341481 0.0266510016246314 -132.486094091731 
! Gamma         0                19606.076745529  0                19280.4733222517 
! Port Impedance         50               0                50               0                
23.0466666666667               0.0272242250817775 -69.018873457104 0.999629352094151 -10.4698613742537 0.999629352094675 -10.4698613742537 0.027224225081778 -131.920849291403 
! Gamma         0                20037.9093668097 0                19705.1337267566 
! Port Impedance         50               0                50               0                
23.5433333333333               0.0278133994457623 -70.0343427181936 0.999613132572111 -10.7047329214957 0.999613132572754 -10.7047329214956 0.0278133994457627 -131.375123124799 
! Gamma         0                20469.7423953836 0                20129.7944897302 
! Port Impedance         50               0                50               0                
24.04                          0.0284187685435601 -71.031879348012 0.999596105231836 -10.9402331863067 0.999596105231648 -10.9402331863067 0.0284187685435604 -130.848587024602 
! Gamma         0                20901.5758409526 0                20554.4556200841 
! Port Impedance         50               0                50               0                
24.5366666666667               0.02904059875147 -72.0118281477271 0.999578232868478 -11.176379623329 0.999578232868165 -11.176379623329 0.0290405987514703 -130.340931098931 
! Gamma         0                21333.4097117216 0                20979.117123248  
! Port Impedance         50               0                50               0                
25.0333333333333               0.0296791561002316 -72.9745374789673 0.999559476815857 -11.4131899502779 0.999559476816645 -11.4131899502778 0.0296791561002316 -129.851842421588 
! Gamma         0                21765.2440180325 0                21403.7790070651 
! Port Impedance         50               0                50               0                
25.53                          0.0303346899191933 -73.9204404715234 0.999539797400127 -11.6506821370421 0.999539797400947 -11.6506821370421 0.0303346899191927 -129.38092380256 
! Gamma         0                22197.0787664289 0                21828.4412820239 
! Port Impedance         50               0                50               0                
26.0266666666667               0.0310074933277553 -74.8498669375698 0.999519152071042 -11.8888745655634 0.999519152071756 -11.8888745655634 0.0310074933277553 -128.927882193557 
! Gamma         0                22628.913966505  0                22253.103952716  
! Port Impedance         50               0                50               0                
26.5233333333333               0.0316978416812671 -75.7632023619751 0.99949749716161 -12.1277858283063 0.999497497162037 -12.1277858283063 0.0316978416812676 -128.492369294637 
! Gamma         0                23060.7496275192 0                22677.7670287528 
! Port Impedance         50               0                50               0                
27.02                          0.0324060342560594 -76.6607998804833 0.999474786547397 -12.3674349284543 0.999474786547227 -12.3674349284543 0.0324060342560594 -128.074069976426 
! Gamma         0                23492.5857582392 0                23102.4305162487 
! Port Impedance         50               0                50               0                
27.5166666666667               0.0331323607018739 -77.5430669337188 0.999450972621092 -12.6078411680109 0.999450972622167 -12.6078411680109 0.0331323607018738 -127.672615402303 
! Gamma         0                23924.4223657475 0                23527.0944243853 
! Port Impedance         50               0                50               0                
28.0133333333333               0.0338771347243991 -78.4103208036009 0.999426005136348 -12.8490241669934 0.999426005136414 -12.8490241669934 0.0338771347243991 -127.287727530386 
! Gamma         0                24356.2594628341 0                23951.7587604542 
! Port Impedance         50               0                50               0                
28.51                          0.0346406609080265 -79.2629906848123 0.999399832205491 -13.091003972176 0.999399832204983 -13.091003972176 0.034640660908026 -126.919017259541 
! Gamma         0                24788.0970531832 0                24376.4235322062 
! Port Impedance         50               0                50               0                
29.0066666666667               0.035423271923328 -80.1013917660462 0.999372398961061 -13.3338009692168 0.999372398962122 -13.3338009692167 0.0354232719233279 -126.566210172387 
! Gamma         0                25219.9351487205 0                24801.0887463017 
! Port Impedance         50               0                50               0                
29.5033333333333               0.0362252906651501 -80.925904117234 0.999343648759267 -13.5774359259548 0.999343648760007 -13.5774359259548 0.0362252906651492 -126.228967734676 
! Gamma         0                25651.7737577971 0                25225.7544115623 
! Port Impedance         50               0                50               0                
30                             0.0370470509248988 -81.7368971605765 0.999313522382927 -13.8219299610305 0.999313522383323 -13.8219299610305 0.0370470509248986 -125.906962761484 
! Gamma         0                26083.6128885414 0                25650.420536487  
! Port Impedance         50               0                50               0                
