! Touchstone file exported from HFSS 2026.1.0
!        File:           C:/Users/urbaneja/Ansys/Project1.aedt
!        Generated:      01:43:48 PM Aug 10, 2026
!        Design:         HFSSDesign_Kinetic_debug
!        Project:        Project1
!        Setup:          Setup1
!        Solution:       Sweep_lowfreq
!
! Variables:
!        port_below = 1um
!        port_width = 30um
!        stub_length = 12um
!
# GHz S MA R 50.000000
! Terminal data exported
! Port[1] = Port1
! Port[2] = Port2
0.01                           0.011979657896517 -0.06229385822884 0.999928241323898 -0.0046711413231095 0.999928241323477 -0.00467114132310951 0.011979657896517 -179.947048424417 
! Gamma         0                8.66452816620094 0                8.55569893396115 
! Port Impedance         50               0                50               0                
0.02                           0.0119796757966212 -0.124578763616347 0.99992824110958 -0.00934217799912241 0.999928241108889 -0.00934217799912242 0.0119796757966208 -179.894105592382 
! Gamma         0                17.3290563324717 0                17.1113978679858 
! Port Impedance         50               0                50               0                
0.03                           0.0119797057268985 -0.186853310867787 0.999928240750611 -0.0140130947412521 0.999928240750695 -0.0140130947412521 0.0119797057268982 -179.841172878615 
! Gamma         2.28294272098319E-40 25.9935844988822 0                25.6670968021376 
! Port Impedance         50               0                50               0                
0.04                           0.0119797475511537 -0.249110317410868 0.999928240249553 -0.0186838078427837 0.999928240249594 -0.0186838078427838 0.0119797475511525 -179.788257298275 
! Gamma         0                34.6581126655022 0                34.22279573648   
! Port Impedance         50               0                50               0                
0.05                           0.0119798012603427 -0.311282493439106 0.999928239606054 -0.0233535220627426 0.999928239606155 -0.0233535220627427 0.0119798012603431 -179.735424550686 
! Gamma         1.57657437783116E-39 43.3226408324015 0                42.7784946710766 
! Port Impedance         50               0                50               0                
0.06                           0.0119798669102094 -0.373471349286837 0.999928238819542 -0.0280234404087058 0.999928238819604 -0.0280234404087058 0.011979866910209 -179.682575531531 
! Gamma         4.39680027867191E-39 51.98716899965   0                51.3341936059909 
! Port Impedance         50               0                50               0                
0.07                           0.0119799446158165 -0.435777875482897 0.999928237888595 -0.0326947597708816 0.999928237888606 -0.0326947597708816 0.0119799446158162 -179.629611644059 
! Gamma         0                60.6516971673176 0                59.8898925412865 
! Port Impedance         50               0                50               0                
0.08                           0.0119800345244934 -0.497955200879806 0.999928236811461 -0.0373645591369702 0.999928236811375 -0.03736455913697 0.0119800345244926 -179.576773917394 
! Gamma         2.11011591918254E-37 69.3162253354741 0                68.445591477027  
! Port Impedance         50               0                50               0                
0.09                           0.0119801365859123 -0.560212105646705 0.999928235588603 -0.0420353113737611 0.999928235588649 -0.0420353113737611 0.0119801365859123 -179.523858517101 
! Gamma         2.03852008345858E-37 77.9807535041893 0                77.0012904132757 
! Port Impedance         50               0                50               0                
0.1                            0.0119802506899734 -0.622486021685645 0.999928234221564 -0.0467062771187684 0.999928234221515 -0.0467062771187685 0.011980250689973 -179.470926532552 
! Gamma         1.01614041466344E-32 86.645281673533  0                85.5569893500964 
! Port Impedance         50               0                50               0                
