! Touchstone file exported from HFSS 2026.1.0
!        Generated:      12:51:24 PM Aug 10, 2026
!        Design:         HFSSDesign_Kinetic_debug
!        Project:        Project1
!        Setup:          Setup1
!        Solution:       Sweep_discrete_debug
!
! Variables:
!        port_below = 1um
!        port_width = 30um
!        stub_length = 12um
!
# GHz S MA R 50.000000
! Terminal data exported
! Port[1] = Port1
! Port[2] = Port2
0.2                            0.0119820465594428 -1.244769386091  0.999928212703414 -0.0934114945755756 0.999928212703418 -0.0934114945755752 0.0119820465594435 -178.94205360306 
! Gamma         0                173.290563416906 0                171.113978763738 
! Port Impedance         50               0                50               0                
0.696666666666667              0.0120087260238751 -4.33059210332263 0.999927892650056 -0.32538916601319 0.999927892649757 -0.325389166013189 0.0120087260238749 -176.320186228704 
! Gamma         0                603.62879951361  0                596.047029312892 
! Port Impedance         50               0                50               0                
1.19333333333333               0.0120649466175905 -7.39881212932318 0.999927215883131 -0.557387253240454 0.999927215882456 -0.557387253240452 0.0120649466175898 -173.715962377157 
! Gamma         1.85158345933023E-31 1033.96704761246 0                1020.98009078237 
! Port Impedance         50               0                50               0                
1.69                           0.0121504696541426 -10.4373381194364 0.999926180318459 -0.789420612091577 0.99992618031938 -0.789420612091579 0.012150469654143 -171.141503104748 
! Gamma         3.83858400091255E-31 1464.30531626997 1.53519543101664E-31 1445.91317095744 
! Port Impedance         50               0                50               0                
2.18666666666667               0.0122646308292368 -13.4350922354221 0.999924786586598 -1.02150403340304 0.999924786586968 -1.02150403340305 0.0122646308292377 -168.607915831385 
! Gamma         3.98844618768092E-38 1894.6436140426  0                1870.84627762335 
! Port Impedance         50               0                50               0                
2.68333333333333               0.0124058181259799 -16.3833385492122 0.999923044876912 -1.25365223533263 0.999923044877622 -1.25365223533263 0.0124058181259799 -166.123965921453 
! Gamma         1.36517785886911E-31 2324.98194948673 1.33091529114058E-34 2295.77941856519 
! Port Impedance         50               0                50               0                
3.18                           0.012574450397459 -19.2722168357196 0.999920938473194 -1.4858801026237 0.999920938473283 -1.4858801026237 0.0125744503974593 -163.699543369528 
! Gamma         9.41521211079891E-32 2755.32033115863 6.49640179781857E-31 2720.71260156803 
! Port Impedance         50               0                50               0                
3.67666666666667               0.0127707127167511 -22.0926462852898 0.999918451123764 -1.71820250534285 0.999918451122723 -1.71820250534285 0.0127707127167516 -161.343758725397 
! Gamma         5.45946497045655E-32 3185.65876761444 3.56395784189357E-31 3145.64583441676 
! Port Impedance         50               0                50               0                
4.17333333333333               0.0129927852145234 -24.8395954066722 0.999915590203783 -1.95063425235385 0.999915590203573 -1.95063425235386 0.0129927852145236 -159.061673098036 
! Gamma         0                3615.99726709595 0                3570.57912976805 
! Port Impedance         50               0                50               0                
4.67                           0.0132404579029101 -27.5070392357203 0.999912341294902 -2.18319038883826 0.99991234129557 -2.18319038883826 0.0132404579029098 -156.859341541956 
! Gamma         0                4046.3358386398  0                3995.5124779647  
! Port Impedance         50               0                50               0                
5.16666666666667               0.013511919645627 -30.0930346526263 0.999908709846709 -2.41588563498172 0.99990870984689 -2.41588563498172 0.0135119196456279 -154.738736617339 
! Gamma         0                4476.67449185165 0                4420.44590832087 
! Port Impedance         50               0                50               0                
5.66333333333333               0.0138066433521972 -32.5947453616193 0.999904683757581 -2.64873515366218 0.999904683756578 -2.64873515366219 0.013806643352197 -152.702724945705 
! Gamma         0                4907.01323194581 0                4845.37941791113 
! Port Impedance         50               0                50               0                
6.16                           0.0141236859736487 -35.0111177034699 0.99990025577284 -2.88175402853695 0.999900255772767 -2.88175402853695 0.0141236859736484 -150.752390353604 
! Gamma         0                5337.35207117613 0                5270.3130201965  
! Port Impedance         50               0                50               0                
6.65666666666667               0.0144623534952863 -37.34163107198  0.99989541469618 -3.11495747627588 0.999895414697111 -3.11495747627588 0.0144623534952859 -148.88828388057 
! Gamma         0                5767.69101581196 0                5695.24671618259 
! Port Impedance         50               0                50               0                
7.15333333333333               0.0148218092871466 -39.5869638379816 0.999890150950796 -3.34836085175705 0.999890150951846 -3.34836085175706 0.0148218092871472 -147.109757865534 
! Gamma         0                6198.03007453523 0                6120.18051254729 
! Port Impedance         50               0                50               0                
7.65                           0.015201172986972 -41.7486803299118 0.999884455495159 -3.5819793334841 0.999884455494129 -3.5819793334841 0.0152011729869721 -145.415278337057 
! Gamma         0                6628.36925899409 0                6545.11442502443 
! Port Impedance         50               0                50               0                
8.14666666666667               0.015598950660824 -43.8314487742805 0.999878328966885 -3.81582910385821 0.999878328967557 -3.81582910385822 0.0155989506608247 -143.800209433438 
! Gamma         2.00387883544201E-21 7058.70857116364 0                6970.04845977604 
! Port Impedance         50               0                50               0                
8.64333333333333               0.0160144051837845 -45.8383818572572 0.999871761190115 -4.04992625431369 0.999871761191302 -4.04992625431364 0.0160144051837845 -142.26147065137 
! Gamma         2.92232776530572E-23 7489.04802890285 0                7394.98261758718 
! Port Impedance         50               0                50               0                
9.14                           0.0164477329465207 -47.7693473657488 0.999864726891309 -4.28428572508208 0.999864726890797 -4.28428572508207 0.0164477329465204 -140.799224084414 
! Gamma         0                7919.3876298231  0                7819.91691164251 
! Port Impedance         50               0                50               0                
9.63666666666667               0.0168985372911237 -49.6266265782443 0.99985720952396 -4.51892313853664 0.999857209524339 -4.51892313853664 0.0168985372911232 -139.411219698827 
! Gamma         0                8349.72739250193 0                8244.85135187506 
! Port Impedance         50               0                50               0                
10.1333333333333               0.0173663576792552 -51.4131995339677 0.999849193438866 -4.75385467982184 0.999849193439471 -4.75385467982185 0.0173663576792551 -138.094509825676 
! Gamma         0                8780.06731994725 0                8669.78594013806 
! Port Impedance         50               0                50               0                
10.63                          0.0178507299481406 -53.1322039995939 0.999840663025847 -4.98909631809337 0.9998406630262  -4.98909631809336 0.0178507299481412 -136.845988636591 
! Gamma         0                9210.40742201816 0                9094.72068582265 
! Port Impedance         50               0                50               0                
11.1266666666667               0.0183512367370111 -54.7868769205695 0.999831601876024 -5.2246643376468 0.999831601876269 -5.2246643376468 0.0183512367370112 -135.662451754724 
! Gamma         0                9640.74770595597 0                9519.65560214012 
! Port Impedance         50               0                50               0                
11.6233333333333               0.0188676356074775 -56.3800122500986 0.99982199031987 -5.46057509091484 0.999821990319267 -5.46057509091483 0.0188676356074775 -134.541137931733 
! Gamma         0                10071.0881833268 0                9944.59069186145 
! Port Impedance         50               0                50               0                
12.12                          0.0193996505916039 -57.9146920179966 0.999811809070705 -5.69684521357199 0.999811809070393 -5.69684521357201 0.0193996505916048 -133.478998409147 
! Gamma         0                10501.4288593174 0                10369.5259620479 
! Port Impedance         50               0                50               0                
12.6166666666667               0.019948035803868 -59.3907609869161 0.999801018136536 -5.93349259244722 0.999801018137249 -5.93349259244718 0.0199480358038685 -132.476224197976 
! Gamma         0                10931.7697454004 0                10794.4614224885 
! Port Impedance         50               0                50               0                
13.1133333333333               0.0205113934160698 -60.8171178412954 0.999789619239603 -6.17053694143507 0.999789619240463 -6.17053694143505 0.0205113934160692 -131.523956041573 
! Gamma         0                11362.1108477364 0                11219.3970826806 
! Port Impedance         50               0                50               0                
13.61                          0.0210896163347639 -62.1950071139974 0.999777589307611 -6.40799263922763 0.999777589308725 -6.40799263922763 0.0210896163347641 -130.620978164457 
! Gamma         0                11792.4521756711 0                11644.3329453502 
! Port Impedance         50               0                50               0                
14.1066666666667               0.0216828993745899 -63.5256098207797 0.999764898300723 -6.64587640548029 0.99976489830118 -6.64587640548026 0.0216828993745897 -129.766142990181 
! Gamma         0                12222.7937385169 0                12069.269022692  
! Port Impedance         50               0                50               0                
14.6033333333333               0.0222911854635223 -64.8114516314588 0.99975152065431 -6.88420578551861 0.999751520654337 -6.88420578551862 0.0222911854635226 -128.956959939579 
! Gamma         0                12653.1355443122 0                12494.2053219917 
! Port Impedance         50               0                50               0                
15.1                           0.0229144834783213 -66.0548075804781 0.999737428752352 -7.1229985387126 0.99973742875091 -7.12299853871261 0.022914483478322 -128.191189496948 
! Gamma         0                13083.4776020183 0                12919.1418482505 
! Port Impedance         50               0                50               0                
15.5966666666667               0.0235527631284263 -67.2580932448991 0.999722595197608 -7.36227260093531 0.999722595197984 -7.36227260093536 0.0235527631284261 -127.466451956972 
! Gamma         0                13513.8199187003 0                13344.0786139952 
! Port Impedance         50               0                50               0                
16.0933333333333               0.0242061080065468 -68.4232867406359 0.999706989239968 -7.6020461780287 0.999706989239901 -7.60204617802866 0.0242061080065464 -126.780805615422 
! Gamma         0                13944.1625050707 0                13769.015622732  
! Port Impedance         50               0                50               0                
16.59                          0.0248745764374985 -69.5524634356954 0.999690579853049 -7.84233774353248 0.999690579853179 -7.84233774353249 0.0248745764374993 -126.132212051369 
! Gamma         0                14374.5053684544 0                14193.952883322  
! Port Impedance         50               0                50               0                
17.0866666666667               0.0255582778319065 -70.6475018269204 0.99967333386222 -8.08316604198356 0.999673333861281 -8.08316604198358 0.0255582778319062 -125.518830257048 
! Gamma         0                14804.8485167062 0                14618.8904005358 
! Port Impedance         50               0                50               0                
17.5833333333333               0.0262572961664734 -71.7102926289141 0.999655217761171 -8.32454988857315 0.999655217762063 -8.32454988857313 0.0262572961664736 -124.938807148231 
! Gamma         0                15235.1919600232 0                15043.8281898004 
! Port Impedance         50               0                50               0                
18.08                          0.0269718007205242 -72.7424725981604 0.999636194806461 -8.56650861935793 0.999636194805211 -8.5665086193579 0.0269718007205242 -124.390544640555 
! Gamma         0                15665.5357051934 0                15468.7662534664 
! Port Impedance         50               0                50               0                
18.5766666666667               0.0277019664126106 -73.7455942117752 0.999616226887785 -8.80906173309036 0.999616226887287 -8.80906173309036 0.02770196641261 -123.872529254405 
! Gamma         0                16095.8797622961 0                15893.704598973  
! Port Impedance         50               0                50               0                
19.0733333333333               0.0284479619120579 -74.7212231758345 0.999595274831105 -9.05222902971036 0.999595274829482 -9.05222902971036 0.0284479619120578 -123.383234883587 
! Gamma         0                16526.2241389071 0                16318.6432364498 
! Port Impedance         50               0                50               0                
19.57                          0.029209988760616 -75.6707733310391 0.99957329724067 -9.29603059203722 0.999573297240691 -9.29603059203721 0.0292099887606155 -122.921287853037 
! Gamma         0                16956.5688447995 0                16743.5821751137 
! Port Impedance         50               0                50               0                
20.0666666666667               0.0299882964412305 -76.5955159466619 0.999550249900635 -9.54048693633102 0.999550249900767 -9.54048693633104 0.029988296441231 -122.485457926001 
! Gamma         0                17386.9138867984 0                17168.5214174248 
! Port Impedance         50               0                50               0                
20.5633333333333               0.0307851592587901 -77.4906588871114 0.99952602465812 -9.78562456651921 0.999526024658666 -9.78562456651921 0.0307851592587893 -122.080590245928 
! Gamma         0                17817.259274325  0                17593.4609752454 
! Port Impedance         50               0                50               0                
21.06                          0.0315994022759742 -78.3617873295842 0.999500614195028 -10.0314610661341 0.99950061419459 -10.0314610661342 0.0315994022759742 -121.701134802683 
! Gamma         0                18247.6050160512 0                18018.4008537061 
! Port Impedance         50               0                50               0                
21.5566666666667               0.0324306813902661 -79.2118786063696 0.999473987107552 -10.2780162564976 0.999473987107447 -10.2780162564976 0.0324306813902668 -121.344153906625 
! Gamma         0                18677.9511202655 0                18443.3410636305 
! Port Impedance         50               0                50               0                
22.0533333333333               0.0332792977621511 -80.0419609586518 0.999446090762432 -10.5253120418888 0.999446090762584 -10.5253120418888 0.0332792977621512 -121.008663125126 
! Gamma         0                19108.2975952099 0                18868.2816106153 
! Port Impedance         50               0                50               0                
22.55                          0.0341455526928757 -80.8530289869128 0.999416870595239 -10.7733705856454 0.999416870596157 -10.7733705856453 0.0341455526928756 -120.693712184378 
! Gamma         0                19538.6444499793 0                19293.2225033367 
! Port Impedance         50               0                50               0                
23.0466666666667               0.0350297730394848 -81.6460030390053 0.999386269167209 -11.02221457764  0.999386269168058 -11.0222145776399 0.0350297730394855 -120.398426116273 
! Gamma         0                19968.99169263   0                19718.1637484373 
! Port Impedance         50               0                50               0                
23.5433333333333               0.0359322896125499 -82.4217647435223 0.999354226770232 -11.2718670003262 0.999354226769903 -11.2718670003262 0.03593228961255 -120.12196925713 
! Gamma         0                20399.3393323123 0                20143.1053544465 
! Port Impedance         50               0                50               0                
24.04                          0.0368534505691678 -83.1811434909374 0.999320680853244 -11.5223513195844 0.999320680853399 -11.5223513195843 0.0368534505691671 -119.863559148231 
! Gamma         0                20829.6873774277 0                20568.0473287852 
! Port Impedance         50               0                50               0                
24.5366666666667               0.0377936122194367 -83.9249437945931 0.999285566229471 -11.7736913973562 0.999285566230325 -11.7736913973562 0.0377936122194369 -119.62243900012 
! Gamma         0                21260.0358354934 0                20992.9896801848 
! Port Impedance         50               0                50               0                
25.0333333333333               0.0387531543095631 -84.6538724451771 0.99924881437577 -12.0259115697663 0.999248814375448 -12.0259115697663 0.0387531543095632 -119.397950694356 
! Gamma         0                21690.3847167986 0                21417.9324159348 
! Port Impedance         50               0                50               0                
25.53                          0.0397324593320767 -85.3686533618583 0.999210354067155 -12.279036655087 0.999210354067571 -12.279036655087 0.0397324593320764 -119.189419948316 
! Gamma         0                22120.7340283524 0                21842.8755436086 
! Port Impedance         50               0                50               0                
26.0266666666667               0.0407319296699684 -86.0699377085092 0.999170110594335 -12.5330919233851 0.9991701105946  -12.5330919233851 0.0407319296699684 -118.99624613826 
! Gamma         0                22551.0837790354 0                22267.8190712689 
! Port Impedance         50               0                50               0                
26.5233333333333               0.0417519741276286 -86.7583553704237 0.999128006141951 -12.7881031384638 0.999128006141206 -12.7881031384638 0.0417519741276295 -118.817850906504 
! Gamma         0                22981.4339778798 0                22692.7630065159 
! Port Impedance         50               0                50               0                
27.02                          0.0427930236208148 -87.4344812743498 0.999083958998784 -13.0440966299569 0.99908395899949 -13.0440966299569 0.0427930236208152 -118.653711985564 
! Gamma         0                23411.7846337422 0                23117.7073555819 
! Port Impedance         50               0                50               0                
27.5166666666667               0.0438555049416518 -88.0989197375767 0.999037884509905 -13.3010991898548 0.999037884510192 -13.3010991898548 0.0438555049416512 -118.503278642133 
! Gamma         0                23842.1357529307 0                23542.6521287777 
! Port Impedance         50               0                50               0                
28.0133333333333               0.04493987162899 -88.7521723879576 0.998989693609689 -13.5591381773405 0.998989693609278 -13.5591381773405 0.0449398716289898 -118.366103966724 
! Gamma         0                24272.4873470246 0                23967.5973326523 
! Port Impedance         50               0                50               0                
28.51                          0.0460465813230603 -89.3947698845348 0.998939293624917 -13.8182415440131 0.998939293625528 -13.8182415440131 0.0460465813230595 -118.241713203491 
! Gamma         0                24702.8394228316 0                24392.5429759387 
! Port Impedance         50               0                50               0                
29.0066666666667               0.0471761184515709 -90.0271798827328 0.998886587079531 -14.0784378777998 0.998886587079982 -14.0784378777998 0.0471761184515709 -118.129695872866 
! Gamma         0                25133.1919878802 0                24817.4890629278 
! Port Impedance         50               0                50               0                
29.5033333333333               0.0483289587321989 -90.6498675054253 0.998831473146137 -14.3397562147604 0.998831473146717 -14.3397562147604 0.0483289587321983 -118.029644924096 
! Gamma         0                25563.5450534056 0                25242.4356048442 
! Port Impedance         50               0                50               0                
30                             0.0495055999463655 -91.2632904618024 0.998773846059848 -14.6022263527395 0.998773846060619 -14.6022263527395 0.0495055999463655 -117.941162243677 
! Gamma         0                25993.8986261112 0                25667.3826099395 
! Port Impedance         50               0                50               0                
