! Touchstone file exported from HFSS 2026.1.0
!        File:           C:/Users/urbaneja/Ansys/Project1.aedt
!        Generated:      01:16:19 PM Aug 10, 2026
!        Design:         HFSSDesign_PEC_sheet_debug
!        Project:        Project1
!        Setup:          Setup1
!        Solution:       Sweep_discrete_debug
!
! Variables:
!        port_below = 1um
!        port_width = 30um
!        stub_length = 3.9um
!
# GHz S MA R 50.000000
! Terminal data exported
! Port[1] = Port1
! Port[2] = Port2
0.2                            0.0236799730136365 -0.802340818723983 0.999719590124188 -0.018808088817877 0.999719590124187 -0.0188080888178769 0.0236799730136369 -179.235275358912 
! Gamma         0                12.9208215468787 0                12.9317684025605 
! Port Impedance         50               0                50               0                
0.696666666666667              0.0237045947740133 -2.79281168913941 0.999719006614658 -0.0655121054173454 0.999719006614663 -0.0655121054173453 0.0237045947740096 -177.338212521695 
! Gamma         0                45.0075283908851 0                45.0456599381065 
! Port Impedance         50               0                50               0                
1.19333333333333               0.0237564096588001 -4.77706535538135 0.999717776675061 -0.112217034206165 0.99971777667506 -0.112217034206165 0.0237564096587981 -175.447368713031 
! Gamma         0                77.0942352435018 0                77.1595514820299 
! Port Impedance         50               0                50               0                
1.69                           0.0238352391459837 -6.75067772785247 0.999715900331116 -0.15892155925843 0.999715900331114 -0.15892155925843 0.0238352391459858 -173.567165390665 
! Gamma         0                109.180942110868 0                109.273443040304 
! Port Impedance         50               0                50               0                
2.18666666666667               0.0239408156242909 -8.70943639961223 0.99971337759742 -0.205625939463635 0.999713377597418 -0.205625939463635 0.0239408156242946 -171.701815479316 
! Gamma         0                141.267648999122 0                141.387334618901 
! Port Impedance         50               0                50               0                
2.68333333333333               0.0240727873979462 -10.6493151805161 0.999710208463879 -0.252330202138021 0.99971020846388 -0.252330202138021 0.0240727873979455 -169.85534522376 
! Gamma         0                173.354355914401 0                173.501226223792 
! Port Impedance         50               0                50               0                
3.18                           0.0242307211729332 -12.5665162333404 0.99970639297318 -0.299034008052399 0.999706392973175 -0.299034008052399 0.0242307211729313 -168.031551782763 
! Gamma         0                205.441062862846 0                205.615117860952 
! Port Impedance         50               0                50               0                
3.67666666666667               0.0244143700069193 -14.457389240635 0.999701924844186 -0.345737421894092 0.999701924844181 -0.345737421894092 0.0244143700069195 -166.234085603153 
! Gamma         0                237.527756678532 0                237.729009536353 
! Port Impedance         50               0                50               0                
4.17333333333333               0.0246221001902417 -16.3194056059854 0.999696830135126 -0.392440665275956 0.999696830135128 -0.392440665275956 0.0246221001902415 -164.465475724566 
! Gamma         0                269.614485159464 0                269.842901255966 
! Port Impedance         50               0                50               0                
4.67                           0.0248548263500227 -18.1487289836094 0.999691071085022 -0.439143157116871 0.999691071085018 -0.439143157116871 0.0248548263500187 -162.729557330621 
! Gamma         0                301.701161222282 0                301.956793025766 
! Port Impedance         50               0                50               0                
5.16666666666667               0.0251111400749731 -19.9433062940984 0.999684665604176 -0.485845278479591 0.999684665604177 -0.485845278479591 0.0251111400749753 -161.028384262863 
! Gamma         0                333.787894360573 0                334.070687775499 
! Port Impedance         50               0                50               0                
5.66333333333333               0.0253900068777749 -21.7012421633132 0.999677621811525 -0.532546424920716 0.999677621811525 -0.532546424920716 0.0253900068777748 -159.363850686528 
! Gamma         0                365.874599572069 0                366.184574832636 
! Port Impedance         50               0                50               0                
6.16                           0.0256910768532964 -23.4204586096584 0.999669929811895 -0.579247228245087 0.999669929811892 -0.579247228245087 0.0256910768532987 -157.738035846834 
! Gamma         0                397.9612936848   0                398.29845402869  
! Port Impedance         50               0                50               0                
6.65666666666667               0.0260135819371543 -25.0994668486258 0.999661589516571 -0.625947286252396 0.999661589516572 -0.625947286252395 0.0260135819371551 -156.15242772388 
! Gamma         0                430.04800812357  0                430.412360290897 
! Port Impedance         50               0                50               0                
7.15333333333333               0.0263566239389184 -26.7372423901523 0.999652603845227 -0.672646493192903 0.999652603845226 -0.672646493192903 0.0263566239389192 -154.608050596234 
! Gamma         0                462.134721962275 0                462.526251090842 
! Port Impedance         50               0                50               0                
7.65                           0.0267194497594589 -28.3329309616835 0.999642971767698 -0.719344854125573 0.999642971767696 -0.719344854125573 0.0267194497594578 -153.105758746566 
! Gamma         0                494.221426208729 0                494.640143237484 
! Port Impedance         50               0                50               0                
8.14666666666667               0.0271012172933613 -29.8860580098046 0.999632694553964 -0.766042348456494 0.999632694553965 -0.766042348456494 0.0271012172933595 -151.646026687106 
! Gamma         0                526.308120932277 0                526.754024661026 
! Port Impedance         50               0                50               0                
8.64333333333333               0.0275011522054622 -31.3963352291342 0.999621771785396 -0.812738756996234 0.999621771785394 -0.812738756996234 0.0275011522054614 -150.229142284857 
! Gamma         0                558.394840940261 0                558.867929027826 
! Port Impedance         50               0                50               0                
9.14                           0.0279185250518934 -32.8636817263439 0.999610202008228 -0.859434312529725 0.999610202008227 -0.859434312529725 0.0279185250518916 -148.855186898713 
! Gamma         0                590.481540795865 0                590.981802816176 
! Port Impedance         50               0                50               0                
9.63666666666667               0.0283524682943604 -34.2884000086256 0.999597987963968 -0.906128811774006 0.99959798796397 -0.906128811774006 0.0283524682943615 -147.523857614924 
! Gamma         0                622.56826094465  0                623.095713111458 
! Port Impedance         50               0                50               0                
10.1333333333333               0.0288023424502067 -35.6707082755687 0.999585126474668 -0.952822099274376 0.99958512647467 -0.952822099274376 0.028802342450207 -146.23493592298 
! Gamma         0                654.65497225478  0                655.209613625859 
! Port Impedance         50               0                50               0                
10.63                          0.0292673126675639 -37.0112767194853 0.999571620450088 -0.999514157547543 0.999571620450089 -0.999514157547543 0.0292673126675659 -144.987751595613 
! Gamma         0                686.741674486682 0                687.323498714848 
! Port Impedance         50               0                50               0                
11.1266666666667               0.0297467324902784 -38.3106907795474 0.999557468035807 -1.04620505833476 0.999557468035807 -1.04620505833476 0.029746732490277 -143.78171933712 
! Gamma         0                718.828382700874 0                719.437389707963 
! Port Impedance         50               0                50               0                
11.6233333333333               0.0302398422974445 -39.5698341573356 0.999542671394185 -1.09289460334718 0.999542671394186 -1.09289460334718 0.0302398422974446 -142.615955049359 
! Gamma         0                750.915095773217 0                751.551292630154 
! Port Impedance         50               0                50               0                
12.12                          0.0307460633272254 -40.7894662781874 0.999527228038278 -1.13958283607084 0.999527228038277 -1.13958283607084 0.0307460633272229 -141.48969939395 
! Gamma         0                783.00180375252  0                783.665181168152 
! Port Impedance         50               0                50               0                
12.6166666666667               0.0312646921018381 -41.970638560294 0.999511140021848 -1.1862695945245 0.999511140021848 -1.1862695945245 0.0312646921018394 -140.401900628757 
! Gamma         0                815.088508804652 0                815.779071945287 
! Port Impedance         50               0                50               0                
13.1133333333333               0.0317951538145646 -43.1143140480868 0.999494406284453 -1.23295490900854 0.999494406284453 -1.23295490900853 0.0317951538145624 -139.351595769927 
! Gamma         0                847.175215503365 0                847.892964890188 
! Port Impedance         50               0                50               0                
13.61                          0.0323368321647077 -44.221598745475 0.99947702789286 -1.27963862492052 0.999477027892867 -1.27963862492052 0.0323368321647072 -138.337678504365 
! Gamma         0                879.261932898269 0                880.006865675645 
! Port Impedance         50               0                50               0                
14.1066666666667               0.0328891858895234 -45.2935593505929 0.999459004387637 -1.32632076130832 0.999459004387634 -1.32632076130833 0.0328891858895234 -137.359082172024 
! Gamma         0                911.348639272658 0                912.120755956356 
! Port Impedance         50               0                50               0                
14.6033333333333               0.0334516777973075 -46.3313139487991 0.999440336014383 -1.37300126319149 0.999440336014385 -1.37300126319149 0.033451677797308 -136.414688577585 
! Gamma         0                943.435345810808 0                944.234648048269 
! Port Impedance         50               0                50               0                
15.1                           0.0340238035909148 -47.3359762167891 0.9994210227873  -1.41968004078782 0.9994210227873  -1.41968004078783 0.0340238035909115 -135.503383864781 
! Gamma         0                975.522054307531 0                976.348542003558 
! Port Impedance         50               0                50               0                
15.5966666666667               0.034605097852455 -48.3086368644113 0.999401064239287 -1.46635703202556 0.99940106423929 -1.46635703202556 0.0346050978524547 -134.624077199639 
! Gamma         0                1007.60876309864 0                1008.46243390603 
! Port Impedance         50               0                50               0                
16.0933333333333               0.0351950648171451 -49.2504778039294 0.999380461792462 -1.51303221220467 0.999380461792464 -1.51303221220467 0.0351950648171453 -133.77558662048 
! Gamma         0                1039.69547380262 0                1040.5763307966  
! Port Impedance         50               0                50               0                
16.59                          0.0357932964051363 -50.1625503418504 0.999359214663305 -1.55970543755405 0.999359214663303 -1.55970543755405 0.0357932964051355 -132.956860533256 
! Gamma         0                1071.78219191857 0                1072.69023128403 
! Port Impedance         50               0                50               0                
17.0866666666667               0.0363993674196702 -51.0459677211347 0.999337323455626 -1.60637677232485 0.99933732345562 -1.60637677232486 0.0363993674196701 -132.166785823515 
! Gamma         0                1103.86889273952 0                1104.80411762205 
! Port Impedance         50               0                50               0                
17.5833333333333               0.0370129087042775 -51.9017518570232 0.999314787536565 -1.65304612206151 0.999314787536564 -1.65304612206151 0.037012908704277 -131.404340387099 
! Gamma         0                1135.95560912365 0                1136.91802153362 
! Port Impedance         50               0                50               0                
18.08                          0.0376335350688583 -52.7309654012302 0.99929160760922 -1.69971335096033 0.99929160760922 -1.69971335096033 0.0376335350688599 -130.668461300693 
! Gamma         0                1168.04231773274 0                1169.03191274438 
! Port Impedance         50               0                50               0                
18.5766666666667               0.0382609033016403 -53.5346121163876 0.999267783568822 -1.74637853634337 0.99926778356882 -1.74637853634337 0.0382609033016399 -129.958144956298 
! Gamma         0                1200.12902917157 0                1201.14580571542 
! Port Impedance         50               0                50               0                
19.0733333333333               0.038894670515917 -54.3136882749091 0.999243316017407 -1.7930414507921 0.999243316017406 -1.79304145079211 0.038894670515914 -129.272394626669 
! Gamma         0                1232.21573820538 0                1233.2597003005  
! Port Impedance         50               0                50               0                
19.57                          0.0395345338426987 -55.0691323565956 0.999218204714987 -1.83970220418296 0.999218204714987 -1.83970220418296 0.039534533842698 -128.610272051769 
! Gamma         0                1264.30245289321 0                1265.37360279573 
! Port Impedance         50               0                50               0                
20.0666666666667               0.0401802013959487 -55.8018501312004 0.999192449639097 -1.88636062590042 0.999192449639096 -1.88636062590042 0.0401802013959497 -127.970871120602 
! Gamma         0                1296.3891637461  0                1297.48749405553 
! Port Impedance         50               0                50               0                
20.5633333333333               0.0408313834203366 -56.5127471196069 0.999166051328799 -1.93301664675151 0.999166051328796 -1.93301664675151 0.0408313834203367 -127.353286173896 
! Gamma         0                1328.47587503802 0                1329.60139075334 
! Port Impedance         50               0                50               0                
21.06                          0.0414878221173497 -57.2026716313574 0.999139009655796 -1.9796703696732 0.999139009655792 -1.9796703696732 0.0414878221173496 -126.756669107989 
! Gamma         0                1360.56258459585 0                1361.71528825444 
! Port Impedance         50               0                50               0                
21.5566666666667               0.0421492608342579 -57.8724496938152 0.999111325033965 -2.0263215246528 0.999111325033967 -2.0263215246528 0.0421492608342573 -126.180193355489 
! Gamma         0                1392.64929795961 0                1393.82918300313 
! Port Impedance         50               0                50               0                
22.0533333333333               0.0428154666801259 -58.5228701044183 0.999082997459652 -2.0729701769306 0.999082997459651 -2.0729701769306 0.042815466680126 -125.623070249443 
! Gamma         0                1424.73601365196 0                1425.94308395729 
! Port Impedance         50               0                50               0                
22.55                          0.0434862236921293 -59.1546786171772 0.999054026741795 -2.11961631836073 0.999054026741802 -2.11961631836073 0.0434862236921266 -125.084554019539 
! Gamma         0                1456.82272651149 0                1458.05698331191 
! Port Impedance         50               0                50               0                
23.0466666666667               0.0441613054078704 -59.7686261987786 0.99902441366799 -2.16625971469622 0.999024413667991 -2.16625971469622 0.04416130540787 -124.563893230613 
! Gamma         0                1488.90944103825 0                1490.17087887347 
! Port Impedance         50               0                50               0                
23.5433333333333               0.0448405125089137 -60.3654138208748 0.998994158360268 -2.21290039559158 0.99899415836027 -2.21290039559158 0.0448405125089116 -124.060386970304 
! Gamma         0                1520.99615227923 0                1522.28477780142 
! Port Impedance         50               0                50               0                
24.04                          0.0455236640084902 -60.9456944360656 0.998963260593323 -2.25953831946219 0.998963260593324 -2.25953831946219 0.0455236640084888 -123.573382202856 
! Gamma         0                1553.08287014367 0                1554.39867765221 
! Port Impedance         50               0                50               0                
24.5366666666667               0.0462105815440179 -61.5101105231577 0.998931720466101 -2.30617350349582 0.998931720466099 -2.30617350349582 0.0462105815440184 -123.102236483835 
! Gamma         0                1585.16957697077 0                1586.5125715623  
! Port Impedance         50               0                50               0                
25.0333333333333               0.0469010838503671 -62.0592965615543 0.998899538659247 -2.35280581358017 0.99889953865925 -2.35280581358017 0.0469010838503677 -122.646315065607 
! Gamma         0                1617.25629158486 0                1618.62646943793 
! Port Impedance         50               0                50               0                
25.53                          0.0475950212031029 -62.5938138489737 0.998866714810677 -2.39943511819985 0.998866714810675 -2.39943511819985 0.0475950212031045 -122.205056387429 
! Gamma         0                1649.34301180464 0                1650.74037478269 
! Port Impedance         50               0                50               0                
26.0266666666667               0.0482922257592396 -63.1142622667221 0.998833249812613 -2.44606147691652 0.998833249812606 -2.44606147691652 0.0482922257592395 -121.777860687111 
! Gamma         0                1681.42972065259 0                1682.85426892811 
! Port Impedance         50               0                50               0                
26.5233333333333               0.0489925662840353 -63.6211497583611 0.998799143195917 -2.49268478150231 0.998799143195919 -2.49268478150231 0.0489925662840371 -121.364219804647 
! Gamma         0                1713.51643719449 0                1714.96816809874 
! Port Impedance         50               0                50               0                
27.02                          0.0496959008885419 -64.115000452886 0.998764395358022 -2.53930495847607 0.998764395358026 -2.53930495847608 0.0496959008885403 -120.963609464063 
! Gamma         0                1745.60315862269 0                1747.08207384923 
! Port Impedance         50               0                50               0                
27.5166666666667               0.0504020936189099 -64.5963206521594 0.998729006767514 -2.58592198180998 0.99872900676752 -2.58592198180998 0.0504020936189099 -120.57552331146 
! Gamma         0                1777.68986855883 0                1779.19596656642 
! Port Impedance         50               0                50               0                
28.0133333333333               0.0511110269383968 -65.0655690987267 0.998692977308492 -2.63253580487259 0.998692977308494 -2.63253580487259 0.0511110269383967 -120.199502511018 
! Gamma         0                1809.77658851904 0                1811.30987429473 
! Port Impedance         50               0                50               0                
28.51                          0.0518225822067786 -65.5231966994633 0.998656307231583 -2.6791463152801 0.998656307231583 -2.6791463152801 0.0518225822067783 -119.835095931096 
! Gamma         0                1841.86330762723 0                1843.42377576031 
! Port Impedance         50               0                50               0                
29.0066666666667               0.0525366465762428 -65.9696410679707 0.998618996798338 -2.72575354140988 0.99861899679834 -2.72575354140988 0.0525366465762435 -119.48186601485 
! Gamma         0                1873.95002071415 0                1875.53767455182 
! Port Impedance         50               0                50               0                
29.5033333333333               0.0532531116505264 -66.4053136223317 0.998581046335019 -2.77235728867132 0.998581046335016 -2.77235728867132 0.0532531116505259 -119.13940095501 
! Gamma         0                1906.03673983129 0                1907.65157812556 
! Port Impedance         50               0                50               0                
30                             0.0539718825951617 -66.8306011951725 0.998542455726911 -2.81895762412473 0.998542455726913 -2.81895762412473 0.0539718825951624 -118.807314053078 
! Gamma         0                1938.12345856502 0                1939.76548162474 
! Port Impedance         50               0                50               0                
