! Touchstone file exported from HFSS 2026.1.0
!        File:           C:/Users/urbaneja/Ansys/Project1.aedt
!        Generated:      12:54:00 PM Aug 10, 2026
!        Design:         HFSSDesign_PEC_sheet_debug
!        Project:        Project1
!        Setup:          Setup1
!        Solution:       Sweep_discrete_debug
!
! Variables:
!        port_below = 1um
!        port_width = 30um
!        stub_length = 12um
!
# GHz S MA R 50.000000
! Terminal data exported
! Port[1] = Port1
! Port[2] = Port2
0.2                            0.0116171521619911 -175.635748124236 0.999932518610955 -0.0514967640753696 0.999932518610954 -0.0514967640753695 0.0116171521619934 -4.46724540391345 
! Gamma         0                12.9403156130022 0                12.939121848594  
! Port Impedance         50               0                50               0                
0.696666666666667              0.0119942995335821 -165.124331056872 0.999928065802082 -0.179371923995318 0.999928065802084 -0.179371923995318 0.011994299533579 -15.2344127911229 
! Gamma         0                45.0754327210793 0                45.0712744417561 
! Port Impedance         50               0                50               0                
1.19333333333333               0.0127527564299906 -155.56989099037 0.99991868029527 -0.307247244243281 0.999918680295274 -0.307247244243281 0.0127527564299915 -25.0446034981146 
! Gamma         0                77.2105498373145 0                77.2034270431825 
! Port Impedance         50               0                50               0                
1.69                           0.0138298885114576 -147.310722602942 0.999904362518618 -0.435119690424122 0.999904362518615 -0.435119690424123 0.0138298885114577 -33.5595167779056 
! Gamma         0                109.345666967525 0                109.335579658766 
! Port Impedance         50               0                50               0                
2.18666666666667               0.0151578603599123 -140.389942701092 0.999885113035148 -0.562988319114726 0.999885113035143 -0.562988319114726 0.0151578603599102 -40.7360339371443 
! Gamma         0                141.480784117526 0                141.467732294398 
! Port Impedance         50               0                50               0                
2.68333333333333               0.0166767841284462 -134.677313784109 0.999860932765722 -0.690851315039662 0.999860932765721 -0.690851315039662 0.0166767841284494 -46.7043888459594 
! Gamma         0                173.615901293134 0                173.599884955971 
! Port Impedance         50               0                50               0                
3.18                           0.0183391995544999 -129.980748553314 0.999831822738057 -0.818707656468175 0.999831822738052 -0.818707656468175 0.0183391995545001 -51.6566667596214 
! Gamma         0                205.751018500166 0                205.732037649377 
! Port Impedance         50               0                50               0                
3.67666666666667               0.0201094255753876 -126.109246516841 0.999797785056069 -0.946556296931033 0.999797785056075 -0.946556296931033 0.0201094255753876 -55.7838660770212 
! Gamma         0                237.886138444945 0                237.864190380507 
! Port Impedance         50               0                50               0                
4.17333333333333               0.0219612272456582 -122.897815268308 0.999758823165801 -1.07439662201947 0.999758823165801 -1.07439662201947 0.0219612272456598 -59.2509779757242 
! Gamma         0                270.021252365763 0                269.996331830015 
! Port Impedance         50               0                50               0                
4.67                           0.0238759413003944 -120.215133913894 0.999714929080794 -1.20222560117756 0.999714929080793 -1.20222560117756 0.0238759413003921 -62.1893172884707 
! Gamma         0                302.156366677189 0                302.128478544335 
! Port Impedance         50               0                50               0                
5.16666666666667               0.0258390345674452 -117.953874216835 0.999666116407186 -1.33004340802068 0.999666116407183 -1.33004340802068 0.0258390345674452 -64.7062125992063 
! Gamma         0                334.291476327445 0                334.260649632312 
! Port Impedance         50               0                50               0                
5.66333333333333               0.0278405793635328 -116.034199950769 0.99961237594415 -1.45784857553354 0.999612375944145 -1.45784857553354 0.0278405793635327 -66.8814972002981 
! Gamma         0                366.426598952655 0                366.392797029444 
! Port Impedance         50               0                50               0                
6.16                           0.0298723065085676 -114.390238393954 0.999553723070383 -1.58563995783063 0.999553723070382 -1.58563995783063 0.0298723065085691 -68.7810415217   
! Gamma         0                398.561715784268 0                398.524943415148 
! Port Impedance         50               0                50               0                
6.65666666666667               0.0319286454835046 -112.973768620153 0.999490150825705 -1.71341618437298 0.999490150825705 -1.71341618437298 0.0319286454835053 -70.4530637485898 
! Gamma         0                430.696837282637 0                430.657107039584 
! Port Impedance         50               0                50               0                
7.15333333333333               0.0340049135472237 -111.745043881841 0.999421665692038 -1.84117614034776 0.999421665692038 -1.84117614034776 0.0340049135472242 -71.9373083988523 
! Gamma         0                462.831944154756 0                462.789265610012 
! Port Impedance         50               0                50               0                
7.65                           0.0360975618312708 -110.673048409781 0.99934827063934 -1.96891844172669 0.999348270639338 -1.96891844172669 0.0360975618312707 -73.2647884736726 
! Gamma         0                494.967069431816 0                494.92141751031  
! Port Impedance         50               0                50               0                
8.14666666666667               0.0382038303617884 -109.733154408699 0.999269967198898 -2.09664208685406 0.999269967198898 -2.09664208685406 0.0382038303617881 -74.4601297650102 
! Gamma         0                527.1021903746   0                527.053556615382 
! Port Impedance         50               0                50               0                
8.64333333333333               0.0403214788630372 -108.905385378619 0.999186758490273 -2.22434546739604 0.99918675849027 -2.22434546739604 0.0403214788630369 -75.5433055561742 
! Gamma         0                559.23732305096  0                559.185731723706 
! Port Impedance         50               0                50               0                
9.14                           0.0424486329182471 -108.173087660797 0.999098650566285 -2.3520281998256 0.999098650566285 -2.3520281998256 0.042448632918247 -76.5309687388548 
! Gamma         0                591.372430198208 0                591.317859899649 
! Port Impedance         50               0                50               0                
9.63666666666667               0.0445838596305473 -107.523182953156 0.999005645359647 -2.47968839512112 0.999005645359648 -2.47968839512112 0.044583859630548 -77.4361938370826 
! Gamma         0                623.507540683066 0                623.450029388575 
! Port Impedance         50               0                50               0                
10.1333333333333               0.0467259342333296 -106.94460254975 0.998907747026731 -2.60732491025116 0.998907747026732 -2.60732491025116 0.0467259342333293 -78.2700472707539 
! Gamma         0                655.642678819057 0                655.582192307326 
! Port Impedance         50               0                50               0                
10.63                          0.04887383748937 -106.428123237044 0.998804959944164 -2.73493665847348 0.998804959944163 -2.73493665847348 0.04887383748937 -79.0417500799028 
! Gamma         0                687.777788264718 0                687.714332404757 
! Port Impedance         50               0                50               0                
11.1266666666667               0.051026697230898 -105.96593144896 0.998697289557602 -2.86252252158351 0.998697289557606 -2.86252252158351 0.0510266972308978 -79.7591135942078 
! Gamma         0                719.912889547544 0                719.846484437503 
! Port Impedance         50               0                50               0                
11.6233333333333               0.0531838262488348 -105.551709630115 0.998584738830676 -2.99008098285008 0.998584738830681 -2.99008098285009 0.0531838262488348 -80.4284523355845 
! Gamma         0                752.048019543329 0                751.978649924524 
! Port Impedance         50               0                50               0                
12.12                          0.0553445842130377 -105.179779583199 0.998467313935857 -3.11761117069835 0.998467313935857 -3.11761117069835 0.0553445842130375 -81.0554427581992 
! Gamma         0                784.183150160295 0                784.110799825309 
! Port Impedance         50               0                50               0                
12.6166666666667               0.057508472375897 -104.845577669394 0.998345018320317 -3.2451117012301 0.998345018320313 -3.24511170123009 0.0575084723758968 -81.6446457330671 
! Gamma         0                816.318256264661 0                816.242953880306 
! Port Impedance         50               0                50               0                
13.1133333333333               0.0596750027742069 -104.544883583301 0.998217859008691 -3.37258153088726 0.998217859008695 -3.37258153088727 0.059675002774207 -82.2002794784728 
! Gamma         0                848.453380075088 0                848.375110246365 
! Port Impedance         50               0                50               0                
13.61                          0.061843794822685 -104.27429465829 0.998085840517707 -3.50001927125803 0.998085840517702 -3.50001927125804 0.0618437948226854 -82.7257438842244 
! Gamma         0                880.588494330282 0                880.507268103234 
! Port Impedance         50               0                50               0                
14.1066666666667               0.0640144965609802 -104.030746064992 0.997948968750432 -3.62742383333849 0.997948968750427 -3.62742383333849 0.0640144965609804 -83.2241016016835 
! Gamma         0                912.72362215332  0                912.63942128604  
! Port Impedance         50               0                50               0                
14.6033333333333               0.0661868033097365 -103.811596169428 0.997807249456344 -3.75479408130739 0.99780724945635 -3.75479408130739 0.066186803309737 -83.697991993184 
! Gamma         0                944.858738773378 0                944.77157185732  
! Port Impedance         50               0                50               0                
15.1                           0.0683604415748335 -103.61453537008 0.997660688825457 -3.88212864810802 0.997660688825465 -3.88212864810802 0.0683604415748335 -84.1497219261362 
! Gamma         0                976.993853596097 0                976.90372781623  
! Port Impedance         50               0                50               0                
15.5966666666667               0.0705351730389469 -103.437529791012 0.997509292871186 -4.00942654481423 0.997509292871181 -4.00942654481423 0.0705351730389473 -84.5813232986142 
! Gamma         0                1009.12897209625 0                1009.03587940944 
! Port Impedance         50               0                50               0                
16.0933333333333               0.0727107744476967 -103.278768489301 0.997353068516467 -4.13668640170823 0.997353068516468 -4.13668640170823 0.0727107744476962 -84.9946043141176 
! Gamma         0                1041.26409868279 0                1041.16803940615 
! Port Impedance         50               0                50               0                
16.59                          0.0748870599613891 -103.136697738454 0.997192021754257 -4.26390715276243 0.997192021754255 -4.26390715276243 0.0748870599613892 -85.3911165670693 
! Gamma         0                1073.39921703332 0                1073.30019638295 
! Port Impedance         50               0                50               0                
17.0866666666667               0.0770638461403174 -103.009864405119 0.997026159946699 -4.39108770469608 0.997026159946702 -4.39108770469608 0.0770638461403178 -85.7723110042716 
! Gamma         0                1105.53433465158 0                1105.43234631451 
! Port Impedance         50               0                50               0                
17.5833333333333               0.079240969497682 -102.89701246465 0.996855490406244 -4.51822667802447 0.996855490406243 -4.51822667802447 0.0792409694976827 -86.1394408913958 
! Gamma         0                1137.66945743988 0                1137.56450815886 
! Port Impedance         50               0                50               0                
18.08                          0.081418294110695 -102.797061411464 0.996680019556979 -4.64532298311573 0.996680019556982 -4.64532298311573 0.0814182941106947 -86.4935845547693 
! Gamma         0                1169.80458287917 0                1169.69666149806 
! Port Impedance         50               0                50               0                
18.5766666666667               0.083595674391355 -102.708937261892 0.996499755756646 -4.77237556229944 0.996499755756643 -4.77237556229944 0.0835956743913546 -86.8358138627089 
! Gamma         0                1201.93969771897 0                1201.82882069155 
! Port Impedance         50               0                50               0                
19.0733333333333               0.0857729923996416 -102.631780403246 0.996314706192178 -4.89938302106642 0.99631470619218 -4.89938302106641 0.0857729923996414 -87.1669856388887 
! Gamma         0                1234.07481996831 0                1233.9609741458  
! Port Impedance         50               0                50               0                
19.57                          0.0879501308847044 -102.564750335936 0.996124878957132 -5.02634429006229 0.996124878957134 -5.02634429006229 0.0879501308847043 -87.4879382441883 
! Gamma         0                1266.20994444765 0                1266.09313673093 
! Port Impedance         50               0                50               0                
20.0666666666667               0.0901269838451897 -102.507104182292 0.995930282089551 -5.15325825452684 0.995930282089552 -5.15325825452685 0.0901269838451904 -87.7994123267583 
! Gamma         0                1298.34505680321 0                1298.22529037576 
! Port Impedance         50               0                50               0                
20.5633333333333               0.092303457222932 -102.458206432518 0.995730923384775 -5.28012362892007 0.995730923384774 -5.28012362892007 0.0923034572229322 -88.1020408253217 
! Gamma         0                1330.48018331822 0                1330.35744847053 
! Port Impedance         50               0                50               0                
21.06                          0.0944794502000816 -102.417394143207 0.995526812039682 -5.40693940893133 0.995526812039679 -5.40693940893133 0.0944794502000815 -88.3964846746565 
! Gamma         0                1362.61531419533 0                1362.48960132211 
! Port Impedance         50               0                50               0                
21.5566666666667               0.0966548830709333 -102.384158211681 0.995317956021364 -5.5337043208099 0.995317956021363 -5.5337043208099 0.0966548830709335 -88.6832504299381 
! Gamma         0                1394.75043602168 0                1394.62176141745 
! Port Impedance         50               0                50               0                
22.0533333333333               0.0988296694263366 -102.357971171844 0.995104364597549 -5.6604171958307 0.995104364597542 -5.6604171958307 0.0988296694263371 -88.9628632198151 
! Gamma         0                1426.88555446867 0                1426.75392128138 
! Port Impedance         50               0                50               0                
22.55                          0.10100373599008 -102.338370274153 0.994886046397299 -5.78707711304967 0.994886046397295 -5.78707711304966 0.10100373599008 -89.2357839519474 
! Gamma         0                1459.0206779379  0                1458.88608236304 
! Port Impedance         50               0                50               0                
23.0466666666667               0.103177006153084 -102.32494824216 0.994663010974717 -5.91368253326401 0.994663010974715 -5.91368253326401 0.103177006153084 -89.5024168243679 
! Gamma         0                1491.15580216705 0                1491.01823886533 
! Port Impedance         50               0                50               0                
23.5433333333333               0.10534941332505 -102.317309470983 0.994435267431759 -6.04023255595177 0.994435267431754 -6.04023255595177 0.10534941332505 -89.7631556409199 
! Gamma         0                1523.29092375869 0                1523.15039727559 
! Port Impedance         50               0                50               0                
24.04                          0.10752088816188 -102.315085829292 0.994202825689451 -6.16672597876867 0.994202825689442 -6.16672597876867 0.10752088816188 -90.0183661282456 
! Gamma         0                1555.42604902898 0                1555.28255956028 
! Port Impedance         50               0                50               0                
24.5366666666667               0.109691368580203 -102.317950770109 0.993965695413579 -6.29316169268226 0.993965695413582 -6.29316169268226 0.109691368580203 -90.2683726152549 
! Gamma         0                1587.56117288251 0                1587.41471288704 
! Port Impedance         50               0                50               0                
25.0333333333333               0.111860797030315 -102.32560777644 0.993723886241917 -6.41953864390066 0.993723886241919 -6.41953864390066 0.111860797030314 -90.5134695113622 
! Gamma         0                1619.69629575278 0                1619.54687435394 
! Port Impedance         50               0                50               0                
25.53                          0.11402911178504 -102.337780878119 0.993477408734349 -6.54585542788957 0.993477408734348 -6.54585542788957 0.11402911178504 -90.7539299776597 
! Gamma         0                1651.83142200371 0                1651.6790409996  
! Port Impedance         50               0                50               0                
26.0266666666667               0.116196259708809 -102.354197919335 0.993226272925599 -6.67211120867168 0.993226272925605 -6.67211120867168 0.116196259708809 -90.9900244980094 
! Gamma         0                1683.96654687891 0                1683.811194674   
! Port Impedance         50               0                50               0                
26.5233333333333               0.11836218645464 -102.37463233127 0.992970489399195 -6.79830465540182 0.992970489399193 -6.79830465540182 0.118362186454639 -91.2219769795351 
! Gamma         0                1716.10167024779 0                1715.94335563411 
! Port Impedance         50               0                50               0                
27.02                          0.120526840419922 -102.398853092846 0.992710068820892 -6.92443474391209 0.9927100688209  -6.9244347439121 0.120526840419922 -91.4500163949791 
! Gamma         0                1748.2367960258  0                1748.07552307823 
! Port Impedance         50               0                50               0                
27.5166666666667               0.122690170550426 -102.426652079383 0.992445022180223 -7.05050030225301 0.992445022180226 -7.05050030225301 0.122690170550426 -91.6743485251231 
! Gamma         0                1780.37192627805 0                1780.20767818491 
! Port Impedance         50               0                50               0                
28.0133333333333               0.124852131148724 -102.457842827495 0.992175360179656 -7.17650029563565 0.99217536017965 -7.17650029563564 0.124852131148724 -91.8951577637748 
! Gamma         0                1812.50704578784 0                1812.33984471127 
! Port Impedance         50               0                50               0                
28.51                          0.127012672779087 -102.492240357319 0.991901094340315 -7.30243352767162 0.991901094340313 -7.30243352767162 0.127012672779087 -92.1126266980249 
! Gamma         0                1844.64217521559 0                1844.47200781518 
! Port Impedance         50               0                50               0                
29.0066666666667               0.129171749346627 -102.529670915453 0.991622236121564 -7.42829893077176 0.991622236121566 -7.42829893077176 0.129171749346627 -92.3269269460905 
! Gamma         0                1876.77730155422 0                1876.60416741886 
! Port Impedance         50               0                50               0                
29.5033333333333               0.131329319413013 -102.56999770667 0.991338796710043 -7.5540953360786 0.991338796710044 -7.55409533607859 0.131329319413013 -92.5381929654858 
! Gamma         0                1908.91242609746 0                1908.73633225674 
! Port Impedance         50               0                50               0                
30                             0.133485339015057 -102.613060484064 0.991050787935733 -7.67982175729416 0.99105078793573 -7.67982175729416 0.133485339015056 -92.7465830305247 
! Gamma         0                1941.04755318405 0                1940.86849460542 
! Port Impedance         50               0                50               0                
