! Touchstone file exported from HFSS 2026.1.0
!        Generated:      11:23:11 AM Aug 21, 2026
!        Design:         HFSSDesign_Supercell_15_4_15
!        Project:        15-4-15_super_cell
!        Setup:          Setup1
!        Solution:       Sweep_small_freq
!
! Variables:
!        stub_length = 12.1um
!
# GHz S MA R 50.000000
! Terminal data exported
! Port[1] = Port1
! Port[2] = Port2
1                              0.017466759388994 -110.599112102256 0.999847444641777 -14.7556506037224 0.999847444401495 -14.7556506037223 0.0174667593889943 -98.912189105186 
! Gamma         0                862.845280752451 6.5058934368281E-32 867.127841156659 
! Port Impedance         50               0                50               0                
1.01818181818182               0.0177702152924517 -110.769468798521 0.999842096242402 -15.0238929218856 0.999842096035394 -15.0238929218889 0.0177702154422095 -99.2783123749673 
! Gamma         3.28832378504618E-33 878.533377193509 6.28913117846898E-32 882.893802348843 
! Port Impedance         50               0                50               0                
1.03636363636364               0.0180731669759433 -110.942727950235 0.99983666493648 -15.2921332625086 0.999836664762624 -15.292133262515 0.0180731672550854 -99.6415298815391 
! Gamma         6.58316751384691E-33 894.221473657669 6.08841445412652E-32 898.659763565021 
! Port Impedance         50               0                50               0                
1.05454545454545               0.0183754546590454 -111.121400075627 0.999831154116785 -15.5603707075753 0.999831153975928 -15.5603707075847 0.0183754550485824 -99.9993292299915 
! Gamma         9.88092934429428E-33 909.909570145342 5.90459980548294E-32 914.425724805621 
! Port Impedance         50               0                50               0                
1.07272727272727               0.0186772693786851 -111.301579760128 0.99982556081447 -15.8286064628289 0.999825560706431 -15.828606462841 0.0186772698606338 -100.355618206769 
! Gamma         1.3177859173568E-32 925.597666656942 5.73853931122854E-32 930.191686071071 
! Port Impedance         50               0                50               0                
1.09090909090909               0.0189784972930097 -111.484965381812 0.999819887615895 -16.0968398870307 0.999819887540457 -16.0968398870454 0.0189784978506682 -100.708697112534 
! Gamma         1.64700518456628E-32 941.285763192881 5.59107944830423E-32 945.957647361801 
! Port Impedance         50               0                50               0                
1.10909090909091               0.0192791348673987 -111.671246219744 0.999814135116352 -16.3650710064058 0.999814135073271 -16.3650710064228 0.0192791354852102 -101.05887668284 
! Gamma         1.97534399593197E-32 956.973859753571 5.46305992363588E-32 961.723608678237 
! Port Impedance         50               0                50               0                
1.12727272727273               0.0195791710362966 -111.860261833238 0.999808304061464 -16.6332998010874 0.999808304050465 -16.6332998011064 0.0195791716998285 -101.406317281725 
! Gamma         2.30237862494083E-32 972.661956339425 5.35531247579611E-32 977.48957002081  
! Port Impedance         50               0                50               0                
1.14545454545455               0.0198785939685812 -112.051877092134 0.999802395223938 -16.9015262461636 0.999802395244718 -16.9015262461844 0.0198785946644998 -101.751153953537 
! Gamma         2.62766755126795E-32 988.350052950856 5.26865964601582E-32 993.255531389947 
! Port Impedance         50               0                50               0                
1.16363636363636               0.0201773917416024 -112.245968975703 0.999796409391055 -17.1697503158267 0.999796409443279 -17.169750315849 0.0201773924576448 -102.093509632345 
! Gamma         2.95075060464997E-32 1004.03814958828 5.20391351795071E-32 1009.02149278608 
! Port Impedance         50               0                50               0                
1.18181818181818               0.0204755524812859 -112.442423237711 0.999790347361879 -17.4379719842827 0.999790347445184 -17.4379719843063 0.0204755532062334 -102.433498478711 
! Gamma         3.27114805666523E-32 1019.7262462521  5.16187442559302E-32 1024.78745420963 
! Port Impedance         50               0                50               0                
1.2                            0.0207730643998674 -112.641133017311 0.99978420994634 -17.7061912260363 0.999784210060334 -17.7061912260609 0.0207730651235161 -102.771227269386 
! Gamma         3.58835965675442E-32 1035.41434294273 5.14332962870154E-32 1040.55341566103 
! Port Impedance         50               0                50               0                
1.21818181818182               0.0210699158058451 -112.841998021018 0.999777997964836 -17.9744080160029 0.999777998109099 -17.9744080160281 0.0210699165189784 -103.106796215584 
! Gamma         3.90186360851481E-32 1051.1024396606  5.14905195510768E-32 1056.31937714071 
! Port Impedance         50               0                50               0                
1.23636363636364               0.021366095104791 -113.04492392792 0.999771712248017 -18.2426223295609 0.9997717124221  -18.2426223295865 0.0213660957991497 -103.440299557895 
! Gamma         4.21111548197362E-32 1066.7905364061  5.17979840923653E-32 1072.08533864909 
! Port Impedance         50               0                50               0                
1.25454545454545               0.0216615907968345 -113.249821905881 0.99976535363663 -18.5108341425809 0.999765353840058 -18.5108341426065 0.0216615914650873 -103.771826050167 
! Gamma         4.5155470571864E-32 1082.47863317965 5.23630874616628E-32 1087.85130018661 
! Port Impedance         50               0                50               0                
1.27272727272727               0.0219563914729315 -113.456608195111 0.999758922981408 -18.7790434314434 0.999758923213677 -18.7790434314688 0.021956392108644 -104.101459376002 
! Gamma         4.81456509411387E-32 1098.16672998167 5.31930401053039E-32 1103.6172617537  
! Port Impedance         50               0                50               0                
1.29090909090909               0.0222504858107658 -113.665203739161 0.999752421142965 -19.0472501730522 0.999752421403545 -19.0472501730771 0.0222504864083702 -104.429278517808 
! Gamma         5.10755002329981E-32 1113.85482681257 5.42948503954881E-32 1119.38322335077 
! Port Impedance         50               0                50               0                
1.30909090909091               0.0225438625706478 -113.875533852844 0.999745848991701 -19.3154543448443 0.999745849280039 -19.3154543448684 0.0225438631254098 -104.755358088931 
! Gamma         5.39385455140028E-32 1129.54292367275 5.56753092945667E-32 1135.14918497827 
! Port Impedance         50               0                50               0                
1.32727272727273               0.0228365105915623 -114.087527920646 0.999739207407715 -19.583655924799 0.999739207723229 -19.583655924822 0.0228365110995492 -105.07976863528 
! Gamma         5.67280217509626E-32 1145.23102056264 5.73409746457911E-32 1150.91514663661 
! Port Impedance         50               0                50               0                
1.34545454545455               0.0231284187874409 -114.30111912134 0.999732497280713 -19.8518548914454 0.999732497622798 -19.851854891467 0.023128419245488 -105.402576910761 
! Gamma         5.94368559635131E-32 1160.91911748264 5.92981550828127E-32 1166.68110832623 
! Port Impedance         50               0                50               0                
1.36363636363636               0.0234195761436738 -114.516244175565 0.999725719509919 -20.1200512238704 0.999725719877948 -20.1200512238904 0.0234195765493498 -105.723846129733 
! Gamma         6.20576503134986E-32 1176.60721443316 6.15528935500352E-32 1182.44707004756 
! Port Impedance         50               0                50               0                
1.38181818181818               0.0237099717138681 -114.732843113845 0.999718875003996 -20.3882449017252 0.999718875397316 -20.3882449017432 0.0237099720654404 -106.04363619903 
! Gamma         6.45826640476058E-32 1192.29531141463 6.41109504257026E-32 1198.21303180102 
! Port Impedance         50               0                50               0                
1.4                            0.0239995946168439 -114.950859062936 0.999711964680947 -20.6564359052327 0.999711965098884 -20.6564359052486 0.0239995949132436 -106.362003931643 
! Gamma         6.70037942020895E-32 1207.98340842745 6.6977786239411E-32 1213.97899358705 
! Port Impedance         50               0                50               0                
1.41818181818182               0.0242884340338557 -115.17023804874 0.999704989468035 -20.9246242151942 0.999704989909894 -20.9246242152076 0.0242884342746407 -106.679003243849 
! Gamma         6.93125549700321E-32 1223.67150547203 7.0158543975504E-32 1229.74495540607 
! Port Impedance         50               0                50               0                
1.43636363636364               0.0245764792060221 -115.390928814212 0.999697950301691 -21.1928098129958 0.999697950766756 -21.1928098130065 0.0245764793913412 -106.994685337324 
! Gamma         7.15000556222993E-32 1239.35960254879 7.36580309536041E-32 1245.5109172585  
! Port Impedance         50               0                50               0                
1.45454545454545               0.0248637194319538 -115.612882650923 0.999690848127425 -21.4609926806156 0.999690848614961 -21.4609926806235 0.0248637195625081 -107.309098867619 
! Gamma         7.3556976863099E-32 1255.04769965814 7.74807002773045E-32 1261.27687914478 
! Port Impedance         50               0                50               0                
1.47272727272727               0.02515014406556 -115.836053243054 0.999683683899736 -21.7291728006301 0.999683684408989 -21.7291728006349 0.0251501441425665 -107.622290100188 
! Gamma         7.54735454896853E-32 1270.73579680049 8.16306318418102E-32 1277.04284106534 
! Port Impedance         50               0                50               0                
1.49090909090909               0.025435742514023 -116.060396522758 0.99967645858202 -21.9973501562209 0.999676459112217 -21.9973501562225 0.0254357425391755 -107.934303055047 
! Gamma         7.72395072131581E-32 1286.42389397626 8.6111512891092E-32 1292.80880302061 
! Port Impedance         50               0                50               0                
1.50909090909091               0.0257205042359253 -116.285870535917 0.999669173146477 -22.2655247311813 0.99966917369683 -22.2655247311796 0.0257205042113567 -108.245179641041 
! Gamma         7.88440974833317E-32 1302.11199118585 9.09266181148681E-32 1308.57476501101 
! Port Impedance         50               0                50               0                
1.52727272727273               0.0260044187395188 -116.512435317433 0.999661828574018 -22.5336965099231 0.999661829143723 -22.533696509918 0.026004418667761 -108.554959780579 
! Gamma         8.02760101451103E-32 1317.80008842968 9.60787892754838E-32 1324.34072703697 
! Port Impedance         50               0                50               0                
1.54545454545455               0.0262874755811244 -116.740052775247 0.99965442585417 -22.8018654774831 0.999654426442409 -22.8018654774745 0.0262874754650706 -108.863681525618 
! Gamma         8.15233637365321E-32 1333.48818570817 1.01570414354507E-31 1340.10668909892 
! Port Impedance         50               0                50               0                
1.56363636363636               0.0265696643636502 -116.968686582404 0.99964696598498 -23.0700316195299 0.999646966590922 -23.0700316195177 0.0265696642065152 -109.171381165615 
! Gamma         8.25736652193845E-32 1349.17628302172 1.07403406208599E-31 1355.87265119729 
! Port Impedance         50               0                50               0                
1.58181818181818               0.0268509747352213 -117.198302076501 0.999639449972916 -23.3381949223704 0.999639450595718 -23.3381949223547 0.0268509745405021 -109.478093328095 
! Gamma         8.34137709118224E-32 1364.86438037074 1.13579180723949E-31 1371.6386133325  
! Port Impedance         50               0                50               0                
1.6                            0.0271313963879114 -117.428866165938 0.999631878832772 -23.6063553729567 0.99963187947158 -23.6063553729375 0.0271313961593486 -109.783851072399 
! Gamma         8.40298443684268E-32 1380.55247775566 1.20098634458298E-31 1387.404575505   
! Port Impedance         50               0                50               0                
1.61818181818182               0.0274109190565663 -117.66034724244 0.999624253587563 -23.8745129588926 0.999624254241512 -23.8745129588699 0.0274109187981047 -110.08868597717 
! Gamma         8.44073109263083E-32 1396.24057517688 1.26962121759288E-31 1403.17053771519 
! Port Impedance         50               0                50               0                
1.63636363636364               0.0276895325177144 -117.892715099364 0.999616575268425 -24.1426676684404 0.999616575936646 -24.1426676684143 0.0276895322334642 -110.392628222038 
! Gamma         8.45308086058016E-32 1411.92867263481 1.34169431347596E-31 1418.93649996352 
! Port Impedance         50               0                50               0                
1.65454545454545               0.0279672265885589 -118.125940855354 0.999608844914514 -24.4108194905274 0.999608845596127 -24.4108194904981 0.0279672262827574 -110.695706663976 
! Gamma         8.43841350205767E-32 1427.61677012987 1.41719762353006E-31 1434.70246225041 
! Port Impedance         50               0                50               0                
1.67272727272727               0.0282439911260405 -118.359996882932 0.999601063572898 -24.6789684147528 0.999601064267021 -24.6789684147205 0.0282439908030136 -110.997948908685 
! Gamma         8.3950189914111E-32 1443.30486766247 1.49611699791297E-31 1450.46842457629 
! Port Impedance         50               0                50               0                
1.69090909090909               0.0285198160259693 -118.594856741663 0.999593232298453 -24.9471144313943 0.9995932330042  -24.9471144313592 0.0285198156900945 -111.299381377436 
! Gamma         8.32109128968433E-32 1458.99296523302 1.57843189469475E-31 1466.23438694159 
! Port Impedance         50               0                50               0                
1.70909090909091               0.0287946912222196 -118.830495115549 0.999585352153753 -25.2152575314149 0.999585352870236 -25.2152575313773 0.0287946908778883 -111.600029369647 
! Gamma         8.21472159102962E-32 1474.68106284194 1.66411512306612E-31 1482.00034934673 
! Port Impedance         50               0                50               0                
1.72727272727273               0.0290686066859828 -119.066887754352 0.999577424208964 -25.4833977064692 0.999577424935293 -25.4833977064294 0.0290686063375645 -111.899917121555 
! Gamma         8.07389098902366E-32 1490.36916048963 1.75313258057185E-31 1497.76631179215 
! Port Impedance         50               0                50               0                
1.74545454545455               0.0293415524250735 -119.304011418549 0.999569449541729 -25.7515349489104 0.999569450277018 -25.7515349488688 0.0293415520768797 -112.199067861233 
! Gamma         7.89646250396406E-32 1506.05725817652 1.84544298423501E-31 1513.53227427827 
! Port Impedance         50               0                50               0                
1.76363636363636               0.0296135184832857 -119.541843827674 0.999561429237059 -26.019669251797 0.999561429980421 -26.019669251754 0.0296135181395358 -112.497503860227 
! Gamma         7.68017240528101E-32 1521.745355903   1.9409975954345E-31 1529.29823680552 
! Port Impedance         50               0                50               0                
1.78181818181818               0.0298844949397943 -119.780363611788 0.999553364387212 -26.2878006088991 0.99955336513777 -26.2878006088553 0.0298844946045814 -112.795246482058 
! Gamma         7.42262075532164E-32 1537.43345366951 2.03973993839476E-31 1545.06419937433 
! Port Impedance         50               0                50               0                
1.8                            0.030154471908601 -120.019550265881 0.999545256091587 -26.5559290147054 0.999545256848466 -26.5559290146611 0.0301544715858595 -113.092316227788 
! Gamma         7.12126109181351E-32 1553.12155147643 2.14160551214285E-31 1560.83016198514 
! Port Impedance         50               0                50               0                
1.81818181818182               0.0304234395380175 -120.259384106978 0.999537105456597 -26.8240544644294 0.999537106218934 -26.8240544643853 0.0304234392314911 -113.388732778882 
! Gamma         6.77338915611908E-32 1568.8096493242  2.2465214957847E-31 1576.59612463836 
! Port Impedance         50               0                50               0                
1.83636363636364               0.0306913880101878 -120.499846233778 0.999528913595554 -27.0921769540162 0.999528914362494 -27.0921769539729 0.0306913877234004 -113.684515037527 
! Gamma         6.37613056276514E-32 1584.49774721322 2.35440644694818E-31 1592.36208733442 
! Port Impedance         50               0                50               0                
1.85454545454545               0.0309583075406428 -120.740918488654 0.999520681628548 -27.360296480149 0.999520682399249 -27.3602964801072 0.0309583072768682 -113.979681164598 
! Gamma         5.92642729243724E-32 1600.18584514391 2.46516999323713E-31 1608.12805007376 
! Port Impedance         50               0                50               0                
1.87272727272727               0.0312241883778885 -120.982583421839 0.999512410682321 -27.6284130402558 0.999512411455956 -27.6284130402162 0.0312241881401241 -114.274248615417 
! Gamma         5.42102287540411E-32 1615.87394311667 2.57871251653624E-31 1623.8940128568  
! Port Impedance         50               0                50               0                
1.89090909090909               0.0314890208030207 -121.224824257673 0.999504101890145 -27.8965266325154 0.999504102665902 -27.8965266324787 0.0314890205939613 -114.56823417346 
! Gamma         4.85644611486136E-32 1631.56204113192 2.69492483000277E-31 1639.65997568397 
! Port Impedance         50               0                50               0                
1.90909090909091               0.0317527951293707 -121.467624862762 0.999495756391695 -28.1646372558642 0.999495757168781 -28.1646372558313 0.0317527949513842 -114.861653982156 
! Gamma         4.22899317958216E-32 1647.25013919008 2.81368784757665E-31 1655.4259385557  
! Port Impedance         50               0                50               0                
1.92727272727273               0.0320155017021747 -121.710969715922 0.999487375332919 -28.4327449100025 0.999487376110564 -28.4327449099743 0.0320155015572799 -115.154523574877 
! Gamma         3.53470787209045E-32 1662.93823729155 2.93487224583671E-31 1671.19190147242 
! Port Impedance         50               0                50               0                
1.94545454545455               0.0322771308982661 -121.954843879796 0.999478959865913 -28.7008495954008 0.999478960643367 -28.7008495953782 0.0322771307881122 -115.446857903261 
! Gamma         2.76935985179762E-32 1678.62633543675 3.05833811802569E-31 1686.95786443455 
! Port Impedance         50               0                50               0                
1.96363636363636               0.0325376731257923 -122.199232974044 0.999470511148783 -28.9689513133062 0.999470511925323 -28.9689513132901 0.03253767305164 -115.738671363971 
! Gamma         1.92842056153393E-32 1694.31443362609 3.18393462006277E-31 1702.72382744253 
! Port Impedance         50               0                50               0                
1.98181818181818               0.0327971188239498 -122.444123149986 0.999462030345516 -29.2370500657485 0.999462031120448 -29.2370500657399 0.0327971187866549 -116.029977823978 
! Gamma         1.00703656990505E-32 1710.00253185998 3.3114996083573E-31 1718.48979049679 
! Port Impedance         50               0                50               0                
2                              0.03305545846274 -122.689501066623 0.999453518625845 -29.5051458555464 0.999453519398502 -29.5051458555463 0.0330554584627395 -116.32079064447 
! Gamma         0                1725.69063013883 3.44085926923289E-31 1734.25575359774 
! Port Impedance         50               0                50               0                
2.01818181818182               0.0333126825427437 -122.935353867949 0.999444977165111 -29.7732386863137 0.999444977934861 -29.7732386863234 0.0333126825800429 -116.611122703473 
! Gamma         -1.09828433392236E-32 1741.37872846306 3.57182773976592E-31 1750.02171674582 
! Port Impedance         50               0                50               0                
2.03636363636364               0.0335687815949088 -123.181669161458 0.999436407144124 -30.0413285624656 0.999436407910369 -30.041328562486 0.0335687816690719 -116.90098641727 
! Gamma         -2.2938355173608E-32 1757.06682683308 3.7042067198376E-31 1765.78767994147 
! Port Impedance         50               0                50               0                
2.05454545454545               0.0338237461803577 -123.428434997791 0.999427809749026 -30.3094154892239 0.999427810511207 -30.3094154892562 0.0338237462905007 -117.190393760664 
! Gamma         -3.59313735684624E-32 1772.75492524931 3.83778507519363E-31 1781.5536431851  
! Port Impedance         50               0                50               0                
2.07272727272727               0.0340775668902082 -123.675639851447 0.999419186171149 -30.577499472624 0.999419186928746 -30.5774994726694 0.0340775670349935 -117.479356286202 
! Gamma         -5.0031840133086E-32 1788.44302371215 3.97233843129988E-31 1797.31960647714 
! Port Impedance         50               0                50               0                
2.09090909090909               0.0343302343454055 -123.923272602479 0.999410537606868 -30.8455805195199 0.999410538359406 -30.8455805195795 0.0343302345230403 -117.767885142377 
! Gamma         -6.53153112254368E-32 1804.13112222201 4.10762875777755E-31 1813.08556981803 
! Port Impedance         50               0                50               0                
2.10909090909091               0.0345817391965694 -124.171322519151 0.999401865257464 -31.1136586375903 0.999401866004512 -31.1136586376654 0.0345817394048063 -118.055991090899 
! Gamma         -8.18635318821445E-32 1819.81922077932 4.24340394319513E-31 1828.85153320819 
! Port Impedance         50               0                50               0                
2.12727272727273               0.0348320721238549 -124.419779241451 0.99939317032897 -31.3817338353443 0.999393171070146 -31.3817338354361 0.0348320723599943 -118.343684523073 
! Gamma         -9.976508163993E-32 1835.50731938448 4.37939735998911E-31 1844.61749664805 
! Port Impedance         50               0                50               0                
2.14545454545455               0.0350812238368186 -124.668632765458 0.99938445403203 -31.6498061221272 0.999384454767004 -31.649806122237 0.0350812240977167 -118.630975475354 
! Gamma         -1.19116102977973E-31 1851.1954180379  4.51532741927937E-31 1860.38346013804 
! Port Impedance         50               0                50               0                
2.16363636363636               0.0353291850742998 -124.917873428472 0.999375717581744 -31.9178755081256 0.999375718310243 -31.9178755082546 0.0353291853563763 -118.917873644106 
! Gamma         -1.40021124980714E-31 1866.88351674001 4.65089711533908E-31 1876.14942367859 
! Port Impedance         50               0                50               0                
2.18181818181818               0.0355759466043115 -125.167491894894 0.999366962197526 -32.1859420043731 0.999366962919331 -32.1859420045225 0.0355759469035628 -119.204388399633 
! Gamma         -1.62593997065413E-31 1882.5716154912  4.78579355947252E-31 1891.91538727012 
! Port Impedance         50               0                50               0                
2.2                            0.0358214992239354 -125.41747914279 0.999358189102943 -32.4540056227557 0.999358189817898 -32.4540056229267 0.0358214995359508 -119.490528799501 
! Gamma         -1.86958950323757E-31 1898.25971429189 4.91968750304843E-31 1907.68135091307 
! Port Impedance         50               0                50               0                
2.21818181818182               0.0360658337592327 -125.66782645111 0.999349399525569 -32.7220663760168 0.999349400233582 -32.7220663762106 0.0360658340792119 -119.776303601214 
! Gamma         -2.13251807299243E-31 1913.9478131425  5.05223284942898E-31 1923.44731460786 
! Port Impedance         50               0                50               0                
2.23636363636364               0.0363089410651539 -125.918525387534 0.999340594696829 -32.9901242777626 0.999340595397874 -32.9901242779805 0.0363089413879309 -120.061721274267 
! Gamma         -2.41621364997404E-31 1929.63591204343 5.18306615452861E-31 1939.21327835493 
! Port Impedance         50               0                50               0                
2.25454545454545               0.0365508120254651 -126.169567796881 0.999331775851843 -33.2581793424672 0.999331776545964 -33.2581793427102 0.0365508123455329 -120.346790011609 
! Gamma         -2.72230980775939E-31 1945.32401099511 5.31180611572933E-31 1954.97924215469 
! Port Impedance         50               0                50               0                
2.27272727272727               0.0367914375526713 -126.420945790086 0.999322944229266 -33.5262315854771 0.999322944916583 -33.5262315857464 0.0367914378642126 -120.631517740561 
! Gamma         -3.05260396705803E-31 1961.01210999793 5.43805304887235E-31 1970.74520600758 
! Port Impedance         50               0                50               0                
2.29090909090909               0.037030808587954 -126.672651733684 0.999314101071141 -33.7942810230166 0.99931410175185 -33.7942810233132 0.0370308088848728 -120.91591213321 
! Gamma         -3.40907845313405E-31 1976.70020905232 5.56138835303834E-31 1986.51116991403 
! Port Impedance         50               0                50               0                
2.30909090909091               0.0372689161011085 -126.924678239785 0.999305247622726 -34.0623276721921 0.999305248297106 -34.0623276725171 0.0372689163770679 -121.199980616307 
! Gamma         -3.79392488671087E-31 1992.38830815869 5.6813739628212E-31 2002.27713387446 
! Port Impedance         50               0                50               0                
2.32727272727273               0.0375057510904889 -127.177018156521 0.999296385132349 -34.330371550997 0.999296385800758 -34.3303715513512 0.037505751338952 -121.483730380703 
! Gamma         -4.20957254069018E-31 2008.07640731745 5.7975517877922E-31 2018.04309788931 
! Port Impedance         50               0                50               0                
2.34545454545455               0.0377413045829553 -127.429664558915 0.999287514851234 -34.598412678316 0.999287515514123 -34.5984126787002 0.0377413047972298 -121.767168390346 
! Gamma         -4.6587214359173E-31 2023.76450652901 5.90944313884377E-31 2033.80906195899 
! Port Impedance         50               0                50               0                
2.36363636363636               0.037975567633828 -127.682610740175 0.99927863803335 -34.8664510739294 0.99927863869126 -34.8664510743444 0.0379755678071152 -122.050301390852 
! Gamma         -5.14438112645959E-31 2039.45260579378 6.01654814109371E-31 2049.57502608395 
! Port Impedance         50               0                50               0                
2.38181818181818               0.0382085313268409 -127.935850203378 0.999269755935242 -35.1344867585178 0.99926975658881 -35.1344867589643 0.0382085314522881 -122.333135917697 
! Gamma         -5.6699163491486E-31 2055.14070511218 6.11834513302203E-31 2065.34099026461 
! Port Impedance         50               0                50               0                
2.4                            0.0384401867740978 -128.189376653517 0.999260869815873 -35.4025197536656 0.999260870465836 -35.4025197541441 0.0384401868448563 -122.615678304022 
! Gamma         -6.23910099777165E-31 2070.82880448461 6.21429005150446E-31 2081.1069545014  
! Port Impedance         50               0                50               0                
2.41818181818182               0.0386705251160324 -128.443183989903 0.999251980936457 -35.6705500818656 0.999251981583653 -35.6705500823764 0.0386705251253195 -122.897934688096 
! Gamma         -6.85618224851353E-31 2086.5169039115  6.30381580239715E-31 2096.87291879474 
! Port Impedance         50               0                50               0                
2.43636363636364               0.0388995375213675 -128.697266298895 0.999243090560297 -35.9385777665223 0.999243091205673 -35.9385777670657 0.038899537462532 -123.179911020438 
! Gamma         -7.52595713612153E-31 2102.20500339325 6.38633161631825E-31 2112.63888314506 
! Port Impedance         50               0                50               0                
2.45454545454546               0.0391272151870715 -128.951617846944 0.999234199952619 -36.2066028319561 0.999234200597232 -36.2066028325321 0.0391272150536647 -123.461613070633 
! Gamma         -8.25386449546343E-31 2117.89310293028 6.46122238926262E-31 2128.4048475528  
! Port Impedance         50               0                50               0                
2.47272727272727               0.0393535493383155 -129.206233073924 0.999225310380408 -36.4746253034064 0.999225311025433 -36.474625304015 0.0393535491241668 -123.743046433844 
! Gamma         -9.04609598991491E-31 2133.58120252299 6.52784800767592E-31 2144.17081201838 
! Port Impedance         50               0                50               0                
2.49090909090909               0.0395785312284245 -129.461106586745 0.999216423112245 -36.7426452070356 0.999216423758974 -36.7426452076765 0.0395785309277219 -124.024216537043 
! Gamma         -9.90973101500192E-31 2149.26930217181 6.58554265760471E-31 2159.93677654223 
! Port Impedance         50               0                50               0                
2.50909090909091               0.0398021521388249 -129.71623315323 0.999207539418137 -37.0106625699318 0.999207540067987 -37.0106625706045 0.0398021517462004 -124.30512864499 
! Gamma         -1.08529016896687E-30 2164.95740187713 6.63361411752861E-31 2175.70274112477 
! Port Impedance         50               0                50               0                
2.52727272727273               0.0400244033789801 -129.971607696222 0.999198660569359 -37.2786774201124 0.999198661223876 -37.2786774208162 0.0400244028895989 -124.585787865949 
! Gamma         -1.18849960662478E-30 2180.64550163938 6.67134303447023E-31 2191.46870576644 
! Port Impedance         50               0                50               0                
2.54545454545455               0.0402452762863168 -130.227225287931 0.999189787838282 -37.5466897865266 0.999189788499144 -37.5466897872604 0.040245275695974 -124.866199157194 
! Gamma         -1.30169103023533E-30 2196.33360145897 6.69798218296734E-31 2207.23467046767 
! Port Impedance         50               0                50               0                
2.56363636363636               0.0404647622261317 -130.483081144478 0.999180922498215 -37.8146996990584 0.999180923167238 -37.8146996998211 0.0404647615313525 -125.146367330284 
! Gamma         -1.42613641336154E-30 2212.0217013363  6.71275570648116E-31 2223.00063522888 
! Port Impedance         50               0                50               0                
2.58181818181818               0.0406828525914754 -130.739170620636 0.999172065823241 -38.0827071885291 0.999172066502384 -38.0827071893191 0.0406828517896209 -125.42629705616 
! Gamma         -1.56332989948752E-30 2227.70980127179 6.7148583408024E-31 2238.76660005051 
! Port Impedance         50               0                50               0                
2.6                            0.0408995388030048 -130.995489204734 0.999163219088054 -38.3507122866996 0.99916321977942 -38.3507122875152 0.0408995378923838 -125.705992870065 
! Gamma         -1.71503852042858E-30 2243.39790126585 6.70345461900538E-31 2254.53256493297 
! Port Impedance         50               0                50               0                
2.61818181818182               0.0411148123087888 -131.252032513705 0.9991543835678  -38.6187150262725 0.999154384273646 -38.6187150271116 0.0411148112887751 -125.985459176316 
! Gamma         -1.88336747343608E-30 2259.0860013189  6.67767805748812E-31 2270.2985298767  
! Port Impedance         50               0                50               0                
2.63636363636364               0.041328664584054 -131.508796288249 0.999145560537922 -38.8867154408938 0.999145561260661 -38.8867154417538 0.0413286634552095 -126.264700252962 
! Gamma         -2.07084507751722E-30 2274.77410143134 6.63663032262374E-31 2286.06449488213 
! Port Impedance         50               0                50               0                
2.65454545454545               0.0415410871308418 -131.765776388064 0.999136751274007 -39.1547135651543 0.999136752016213 -39.1547135660323 0.0415410858950451 -126.543720256365 
! Gamma         -2.28053469661282E-30 2290.46220160358 6.57938037753563E-31 2301.83045994968 
! Port Impedance         50               0                50               0                
2.67272727272727               0.0417520714775446 -132.022968787103 0.999127957051639 -39.4227094345904 0.999127957816052 -39.4227094354833 0.0417520701381253 -126.822523225754 
! Gamma         -2.51618417384783E-30 2306.15030183604 6.50496360849545E-31 2317.59642507979 
! Port Impedance         50               0                50               0                
2.69090909090909               0.0419616091782635 -132.280369568779 0.999119179146263 -39.6907030856849 0.999119179935794 -39.6907030865889 0.041961607740145 -127.101113087825 
! Gamma         -2.78242831163022E-30 2321.83840212912 6.41238093042952E-31 2333.36239027288 
! Port Impedance         50               0                50               0                
2.70909090909091               0.0421696918119076 -132.537974921004 0.999110418833054 -39.9586945558659 0.999110419650792 -39.9586945567771 0.0421696902817527 -127.3794936615  
! Gamma         -3.08506774728184E-30 2337.52650248324 6.30059787100483E-31 2349.12835552938 
! Port Impedance         50               0                50               0                
2.72727272727273               0.0423763109809052 -132.795781130914 0.999101677386817 -40.2266838835059 0.999101678236031 -40.2266838844196 0.0423763093672702 -127.657668663001 
! Gamma         -3.43146010830067E-30 2353.2146028988  6.16854363275135E-31 2364.89432084972 
! Port Impedance         50               0                50               0                
2.74545454545455               0.0425814583093209 -133.053784579014 0.999092956081898 -40.4946711079182 0.999092956966046 -40.4946711088294 0.0425814566228162 -127.935641711487 
! Gamma         -3.83107997986758E-30 2368.90270337621 6.01511013266278E-31 2380.66028623433 
! Port Impedance         50               0                50               0                
2.76363636363636               0.0427851254400379 -133.311981732314 0.999084256192149 -40.7626562693515 0.999084257114883 -40.7626562702546 0.042785123693495 -128.213416335696 
! Gamma         -4.29633926830494E-30 2384.59080391588 5.83915101870186E-31 2396.42625168364 
! Port Impedance         50               0                50               0                
2.78181818181818               0.0429873040304202 -133.570369135773 0.999075578990965 -41.0306394089802 0.999075579956132 -41.0306394098691 0.0429873022390665 -128.490995982275 
! Gamma         -4.84382109762591E-30 2400.2789045182  5.63948066262099E-31 2412.19221719806 
! Port Impedance         50               0                50               0                
2.8                            0.0431879857454134 -133.828943400747 0.999066925751423 -41.2986205688886 0.999066926763076 -41.2986205697566 0.0431879839270514 -128.768384027072 
! Gamma         -5.49619273878635E-30 2415.96700518359 5.41487312849239E-31 2427.95818277805 
! Port Impedance         50               0                50               0                
2.81818181818182               0.0433871622461374 -134.087701188111 0.999058297746641 -41.5665997920435 0.999058298809041 -41.5665997928834 0.0433871604213351 -129.045583791744 
! Gamma         -6.28527754730022E-30 2431.65510591243 5.16406111632514E-31 2443.72414842401 
! Port Impedance         50               0                50               0                
2.83636363636364               0.0435848251701341 -134.346639181385 0.999049696250504 -41.8345771222466 0.99904969736813 -41.8345771230503 0.0435848233624186 -129.322598570305 
! Gamma         -7.25719716297513E-30 2447.34320670511 4.8857348801292E-31 2459.49011413638 
! Port Impedance         50               0                50               0                
2.85454545454545               0.0437809660951707 -134.605754040082 0.999041122539144 -42.1025526040455 0.999041123716694 -42.1025526048045 0.0437809643312327 -129.599431675371 
! Gamma         -8.48141760939411E-30 2463.03130756202 4.57854111976882E-31 2475.25607991559 
! Port Impedance         50               0                50               0                
2.87272727272727               0.0439755764681009 -134.865042310866 0.99903257789399 -42.3705262825591 0.999032579136392 -42.3705262832641 0.0439755747780056 -129.876086526418 
! Gamma         -1.0067657763998E-29 2478.71940848349 4.24108184592878E-31 2491.02204576207 
! Port Impedance         50               0                50               0                
2.89090909090909               0.044168647451917 -135.124500239833 0.999024063608527 -42.6384982031016 0.99902406492094 -42.6384982037425 0.0441686458693225 -130.152566836503 
! Gamma         -1.21999825671535E-29 2494.40750946986 3.87191321749875E-31 2506.78801167625 
! Port Impedance         50               0                50               0                
2.90909090909091               0.0443601695552903 -135.384123321713 0.999015581004876 -42.9064684102703 0.999015582392701 -42.9064684108363 0.0443601681176747 -130.428877061004 
! Gamma         -1.52126106265966E-29 2510.09561052134 3.46954435066087E-31 2522.55397765854 
! Port Impedance         50               0                50               0                
2.92727272727273               0.0445501315717314 -135.64390501385 0.999007131481591 -43.1744369453345 0.999007132950472 -43.174436945814 0.0445501303206292 -130.705023678153 
! Gamma         -1.97822246291823E-29 2525.78371163801 3.03243609894585E-31 2538.31994370939 
! Port Impedance         50               0                50               0                
2.94545454545455               0.0447385166514556 -135.903831981073 0.998998716691036 -43.4424038365655 0.998998718246873 -43.4424038369461 0.0447385156327023 -130.981019924589 
! Gamma         -2.75175250927277E-29 2541.47181281943 2.55899980350219E-31 2554.08590982922 
! Port Impedance         50               0                50               0                
2.96363636363636               0.0449252790533654 -136.163855964965 0.998990339589984 -43.7103690420104 0.998990341238932 -43.7103690422786 0.0449252783173562 -131.256913811364 
! Gamma         -4.34051460652346E-29 2557.15991406346 2.04759601280135E-31 2569.85187601846 
! Port Impedance         50               0                50               0                
2.98181818181818               0.0451096866805992 -136.423098271818 0.99898203415462 -43.9783308310889 0.998982035903103 -43.9783308312306 0.0451096862827102 -131.533580399132 
! Gamma         -9.44297695212591E-29 2572.8480153572  1.49653317098024E-31 2585.61784227754 
! Port Impedance         50               0                50               0                
3                              0.0452947206334345 -136.685173022741 0.998973666534775 -44.2462966144134 0.998973668389486 -44.2462966144134 0.0452947206334342 -131.807420206085 
! Gamma         0                2588.53611777122 9.04066273999306E-32 2601.38380860688 
! Port Impedance         50               0                50               0                
