! Touchstone file exported from HFSS 2026.1.0
!        Generated:      01:55:38 PM Aug 24, 2026
!        Design:         HFSSDesign_Supercell_15_4_15_stub_length
!        Project:        15-4-15_super_cell_cascade_validation
!        Setup:          Setup1
!        Solution:       Sweep_15_4_15_low
!
! Variables:
!        stub_length = 8.34um
!
# GHz S MA R 50.000000
! Terminal data exported
! Port[1] = Port1
! Port[2] = Port2
1                              0.0270855969073257 80.8953034762086 0.999633118031452 -12.8231751629339 0.999633117806261 -12.8231751629339 0.0270855969073262 73.4583461979241
! Gamma         6.85364685894651E-31 877.515336255417 3.25580123066977E-32 878.360833403353
! Port Impedance         50               0                50               0
1.01818181818182               0.0275689764830855 80.588429469066  0.999619903730432 -13.0562340389817 0.999619903331916 -13.0562340389818 0.0275689764830849 73.299102452969
! Gamma         1.79775617578177E-32 893.470161047187 9.44517112055639E-33 894.331030871123
! Port Impedance         50               0                50               0
1.03636363636364               0.0280520382317702 80.2840025584697 0.999606464319263 -13.2892877307092 0.999606463961308 -13.2892877307092 0.0280520382317699 73.1374219801126
! Gamma         1.63024479311682E-32 909.42498586578  3.90539613126868E-32 910.301228365747
! Port Impedance         50               0                50               0
1.05454545454545               0.0285347638772917 79.9818990533182 0.99959280085291 -13.5223367399684 0.999592800586303 -13.5223367399684 0.0285347638772919 72.9734274667441
! Gamma         2.33576877685431E-33 925.379810711665 1.82160449084159E-31 926.271425887696
! Port Impedance         50               0                50               0
1.07272727272727               0.0290171456954724 79.6820000133579 0.999578913955723 -13.7553809504012 0.99957891398652 -13.7553809504011 0.0290171456954725 72.8072380858395
! Gamma         1.9851973064915E-32 941.33463558534  0                942.241623437466
! Port Impedance         50               0                50               0
1.09090909090909               0.0294991832997235 79.3841959175958 0.999564804583443 -13.9884198387821 0.999564804205992 -13.9884198387821 0.0294991832997233 72.6389644048409
! Gamma         1.70927057881972E-33 957.289460487274 3.03213082526011E-31 958.211821015529
! Port Impedance         50               0                50               0
1.10909090909091               0.0299808605402138 79.0883866554586 0.999550472940858 -14.2214537935239 0.999550472985854 -14.2214537935239 0.0299808605402138 72.4687057574928
! Gamma         1.08910697273839E-31 973.244285417946 2.98734454937576E-33 974.182018622364
! Port Impedance         50               0                50               0
1.12727272727273               0.0304621753047717 78.7944738189479 0.999535920353976 -14.4544824026825 0.999535920151714 -14.4544824026825 0.0304621753047713 72.2965613756867
! Gamma         3.02576709321302E-31 989.199110377835 9.85328843791403E-33 990.15221625845
! Port Impedance         50               0                50               0
1.14545454545455               0.030943119639641 78.5023668219227 0.999521147138854 -14.6875055996862 0.999521146907941 -14.6875055996862 0.0309431196396406 72.1226219787069
! Gamma         4.46169850601354E-31 1005.15393536742 0                1006.12241392427
! Port Impedance         50               0                50               0
1.16363636363636               0.0314236756902586 78.2119873679122 0.999506154422684 -14.9205239066192 0.999506154299914 -14.9205239066191 0.0314236756902583 71.9469648188483
! Gamma         2.45209053665963E-31 1021.10876038717 6.70937310580221E-32 1022.09261162029
! Port Impedance         50               0                50               0
1.18181818181818               0.0319038475304501 77.9232507835612 0.999490942659976 -15.1535365569939 0.99949094271343 -15.1535365569939 0.03190384753045 71.7696761024521
! Gamma         0                1037.06358543759 1.1258106659697E-31 1038.06280934701
! Port Impedance         50               0                50               0
1.2                            0.0323836237565637 77.636087021464  0.999475512869297 -15.386543708771 0.999475512956392 -15.386543708771 0.032383623756563 71.5908255609937
! Gamma         1.93045524729449E-31 1053.01841051914 2.75835621817689E-34 1054.03300710489
! Port Impedance         50               0                50               0
1.21818181818182               0.0328629957778852 77.3504226999722 0.999459865943582 -15.6195453462754 0.999459865820055 -15.6195453462753 0.0328629957778856 71.4104866074771
! Gamma         3.30190361095897E-30 1068.9732356323  2.79257251612391E-32 1070.00320489443
! Port Impedance         50               0                50               0
1.23636363636364               0.0333419624315467 77.0661946240375 0.999444002181698 -15.8525410421327 0.999444002225966 -15.8525410421327 0.0333419624315469 71.2287232916965
! Gamma         7.61714944187243E-32 1084.92806077755 3.26415211688179E-32 1085.9734027161
! Port Impedance         50               0                50               0
1.25454545454545               0.0338205080166095 76.7833395326347 0.999427923009   -16.0855312088005 0.999427922956385 -16.0855312088005 0.0338205080166086 71.0455980497645
! Gamma         5.00451406424485E-31 1100.88288595536 0                1101.94360057036
! Port Impedance         50               0                50               0
1.27272727272727               0.0342986272033408 76.5017996236844 0.999411629004756 -16.3185156624605 0.999411628986772 -16.3185156624605 0.0342986272033406 70.8611690513957
! Gamma         9.99872770376769E-31 1116.83771116623 7.32428652460179E-32 1117.91379845773
! Port Impedance         50               0                50               0
1.29090909090909               0.0347763160968571 76.2215190687354 0.999395121021621 -16.5514941364138 0.999395120938481 -16.5514941364138 0.0347763160968578 70.6754926584369
! Gamma         2.39657064346808E-31 1132.79253641063 9.14055290029042E-34 1133.88399637866
! Port Impedance         50               0                50               0
1.30909090909091               0.035253567036868 75.9424468239969 0.999378399819333 -16.7844665942476 0.999378399805052 -16.7844665942476 0.0352535670368682 70.4886199875092
! Gamma         1.84081718161922E-30 1148.74736168904 2.72933498962758E-32 1149.85419433363
! Port Impedance         50               0                50               0
1.32727272727273               0.035730370511053 75.664533078334  0.999361466525715 -17.0174331041792 0.999361466372331 -17.0174331041791 0.0357303705110525 70.300600713307
! Gamma         8.4883066632662E-31 1164.70218700193 0                1165.82439232314
! Port Impedance         50               0                50               0
1.34545454545455               0.0362067217327852 75.3877323224652 0.999344321700431 -17.2503934699036 0.999344321686893 -17.2503934699035 0.0362067217327852 70.1114807377299
! Gamma         0                1180.65701234979 4.27799347470326E-32 1181.79459034764
! Port Impedance         50               0                50               0
1.36363636363636               0.0366826106859856 75.1119995824053 0.999326966563462 -17.483347797134 0.999326966535774 -17.483347797134 0.0366826106859854 69.9213048233271
! Gamma         3.26207109437569E-32 1196.61183773308 4.30000595293527E-32 1197.76478840763
! Port Impedance         50               0                50               0
1.38181818181818               0.0371580361134306 74.8372929195449 0.999309401819878 -17.716295684255 0.99930940160632 -17.716295684255 0.0371580361134305 69.7301157119436
! Gamma         1.30232401374426E-30 1212.5666631523  1.31967525040847E-32 1213.73498650359
! Port Impedance         50               0                50               0
1.4                            0.0376329872077564 74.5635728159273 0.999291628387043 -17.9492372875898 0.99929162809623 -17.9492372875898 0.0376329872077563 69.537952608893
! Gamma         3.80189639921448E-32 1228.52148860793 2.7444824057866E-31 1229.70518463599
! Port Impedance         50               0                50               0
1.41818181818182               0.0381074573239827 74.2908056137902 0.999273648624779 -18.1821725086372 0.999273645482919 -18.1821725086372 0.0381074573239832 69.3448493689349
! Gamma         3.60543579154657E-31 1244.47631410043 9.59258214467317E-32 1245.67538280532
! Port Impedance         50               0                50               0
1.43636363636364               0.0385814412216756 74.0189480847383 0.999255460673835 -18.4151012401225 0.999255457378162 -18.4151012401225 0.038581441221675 69.1508494350172
! Gamma         4.87078984055818E-31 1260.4311396303  6.75067578181152E-33 1261.64558101205
! Port Impedance         50               0                50               0
1.45454545454545               0.0390549338388411 73.747968936672  0.999237064463187 -18.6480232309329 0.999237065609897 -18.6480232309329 0.0390549338388414 68.955984601461
! Gamma         0                1276.385965198   1.42348410347226E-31 1277.61577925666
! Port Impedance         50               0                50               0
1.47272727272727               0.0395279219381193 73.4778389164567 0.999218465640406 -18.880938909261 0.999218466951918 -18.880938909261 0.0395279219381195 68.7602832650206
! Gamma         3.47674113164717E-32 1292.34079080402 1.70114009252121E-31 1293.58597753964
! Port Impedance         50               0                50               0
1.49090909090909               0.0400004041380514 73.2085243734704 0.999199663038051 -19.1138478335415 0.999199664092333 -19.1138478335415 0.0400004041380514 68.5637799594469
! Gamma         2.63323781217286E-31 1308.29561644884 8.21904789769232E-32 1309.55617586146
! Port Impedance         50               0                50               0
1.50909090909091               0.0404723736824209 72.9399983056078 0.999180657168743 -19.346749952898 0.999180658478164 -19.346749952898 0.0404723736824214 68.3665017885949
! Gamma         2.87527251420635E-31 1324.25044213293 1.73396779382641E-31 1325.5263742226
! Port Impedance         50               0                50               0
1.52727272727273               0.040943823406648 72.6722326466757 0.999161449496096 -19.5796452318154 0.999161450662779 -19.5796452318155 0.040943823406648 68.1684768896922
! Gamma         3.40438423068206E-31 1340.20526785678 0                1341.49657262354
! Port Impedance         50               0                50               0
1.54545454545455               0.0414147460262528 72.4051998007842 0.999142040825734 -19.8125336446405 0.999142041892817 -19.8125336446405 0.0414147460262529 67.9697329099333
! Gamma         6.38802166990652E-31 1356.16009362086 0                1357.46677106477
! Port Impedance         50               0                50               0
1.56363636363636               0.0418851378251042 72.1388753791203 0.999122431927933 -20.0454149623553 0.999122433176813 -20.0454149623553 0.0418851378251034 67.770294696168
! Gamma         0                1372.11491942565 5.19196515142753E-33 1373.43696954674
! Port Impedance         50               0                50               0
1.58181818181818               0.0423549884541866 71.8732340877032 0.999102624252327 -20.2782893474995 0.999102625418532 -20.2782893474995 0.0423549884541859 67.5701872172962
! Gamma         6.06014638322818E-32 1388.06974527164 1.22049069015479E-34 1389.40716806997
! Port Impedance         50               0                50               0
1.6                            0.0428242914381837 71.6082539666419 0.999082618616569 -20.511156726771 0.999082619858786 -20.511156726771 0.0428242914381834 67.3694325798165
! Gamma         0                1404.02457115929 2.75099846326553E-32 1405.37736663491
! Port Impedance         50               0                50               0
1.61818181818182               0.0432930439162238 71.3439137528836 0.999062416022999 -20.7440168390949 0.999062417262917 -20.7440168390949 0.0432930439162239 67.1680525689247
! Gamma         2.41576570158547E-31 1419.9793970891  1.12309636546563E-32 1421.34756524205
! Port Impedance         50               0                50               0
1.63636363636364               0.0437612411564364 71.080190648674  0.999042017363786 -20.976869510446 0.999042018679191 -20.976869510446 0.0437612411564359 66.9660703304336
! Gamma         1.61340296713258E-30 1435.93422306154 1.088709874345E-33 1437.31776389188
! Port Impedance         50               0                50               0
1.65454545454545               0.0442288637145063 70.8170837520541 0.999021424361434 -21.2097151358029 0.999021425644064 -21.2097151358029 0.044228863714507 66.7634859763398
! Gamma         2.61841621965365E-30 1451.88904907707 1.30426962033958E-32 1453.28796258484
! Port Impedance         50               0                50               0
1.67272727272727               0.0446959155892855 70.5545581831293 0.999000637533166 -21.4425532774141 0.999000638872469 -21.4425532774141 0.0446959155892852 66.5603352620428
! Gamma         1.05284601051408E-30 1467.8438751362  6.81466681089756E-32 1469.25816132146
! Port Impedance         50               0                50               0
1.69090909090909               0.0451623904987822 70.2925917887149 0.998979658101594 -21.6753839379484 0.99897965928646 -21.6753839379485 0.0451623904987829 66.3566403353863
! Gamma         5.02037336266673E-31 1483.7987012394  1.21257975853592E-32 1485.22836010219
! Port Impedance         50               0                50               0
1.70909090909091               0.0456282793575095 70.0311687454185 0.99895848696585 -21.9082072179105 0.998958488409126 -21.9082072179105 0.0456282793575103 66.1524168187613
! Gamma         0                1499.75352738713 0                1501.19855892753
! Port Impedance         50               0                50               0
1.72727272727273               0.0460935807819392 69.7702708630411 0.998937125390004 -22.1410227669657 0.998937126719672 -22.1410227669657 0.0460935807819395 65.9476836030269
! Gamma         1.34525061692218E-30 1515.7083535799  1.60342246170312E-31 1517.16875779793
! Port Impedance         50               0                50               0
1.74545454545455               0.0465582841178025 69.5098825642413 0.99891557453247 -22.3738307784506 0.998915575670175 -22.3738307784506 0.0465582841178025 65.7424558788581
! Gamma         7.53998440632255E-31 1531.66317981816 7.06830306259209E-32 1533.13895671389
! Port Impedance         50               0                50               0
1.76363636363636               0.0470223886559502 69.2499885813046 0.998893834979375 -22.6066308664495 0.998893836386218 -22.6066308664495 0.0470223886559507 65.5367496857975
! Gamma         0                1547.6180061024  4.82478918960458E-32 1549.10915567588
! Port Impedance         50               0                50               0
1.78181818181818               0.0474858786108764 68.9905721597697 0.998871908654769 -22.8394235367077 0.998871910089318 -22.8394235367077 0.0474858786108762 65.3305807668146
! Gamma         2.84648888589511E-31 1563.5728324331  4.15452299030246E-32 1565.07935468439
! Port Impedance         50               0                50               0
1.8                            0.0479487564541079 68.731621148626  0.998849796295588 -23.072208222256 0.998849797491731 -23.072208222256 0.0479487564541074 65.123962406863
! Gamma         3.46614736340946E-31 1579.52765881075 2.13734911632702E-31 1581.0495537399
! Port Impedance         50               0                50               0
1.81818181818182               0.0484110138147082 68.4731219162221 0.998827498788261 -23.304984986014 0.998827500195731 -23.304984986014 0.0484110138147085 64.9169081117508
! Gamma         0                1595.48248523581 2.92376144285879E-31 1597.01975284288
! Port Impedance         50               0                50               0
1.83636363636364               0.0488726442016126 68.2150615199943 0.998805017609152 -23.5377538051754 0.998805019058406 -23.5377538051754 0.0488726442016132 64.7094308696533
! Gamma         1.54348426488007E-30 1611.43731170877 6.74017742501397E-33 1612.98995199381
! Port Impedance         50               0                50               0
1.85454545454545               0.049333641349026 67.9574240070118 0.998782353969795 -23.7705146088989 0.998782355201095 -23.7705146088989 0.0493336413490254 64.5015467751897
! Gamma         3.70871846939674E-31 1627.3921382301  6.87501385911357E-31 1628.96015119317
! Port Impedance         50               0                50               0
1.87272727272727               0.0497940004726788 67.7002015153853 0.998759508734256 -24.0032672811406 0.998759509965617 -24.0032672811406 0.0497940004726788 64.2932639223326
! Gamma         9.73565817731909E-31 1643.34696480029 0                1644.93035044145
! Port Impedance         50               0                50               0
1.89090909090909               0.0502537125899289 67.4433803301515 0.998736483291066 -24.2360119234979 0.998736484607052 -24.2360119234979 0.0502537125899291 64.0845958228532
! Gamma         5.4594465596859E-31 1659.30179141981 1.71795559298481E-32 1660.90054973912
! Port Impedance         50               0                50               0
1.90909090909091               0.0507127747664298 67.1869492844518 0.998713278698276 -24.4687482998297 0.998713280127344 -24.4687482998298 0.0507127747664298 63.8755541158883
! Gamma         1.28421668105438E-30 1675.25661808915 0                1676.87074908666
! Port Impedance         50               0                50               0
1.92727272727273               0.0511711811492483 66.9308974617588 0.998689896400118 -24.7014763405577 0.998689897449605 -24.7014763405577 0.0511711811492488 63.666149857125
! Gamma         1.3933598905694E-33 1691.21144480878 1.24392091490638E-32 1692.84094848455
! Port Impedance         50               0                50               0
1.94545454545455               0.0516289238241568 66.6752154888144 0.998666337141608 -24.9341961094379 0.998666338428248 -24.9341961094379 0.0516289238241575 63.4563922923096
! Gamma         1.27313532100966E-31 1707.16627157918 5.64280855606925E-32 1708.81114793327
! Port Impedance         50               0                50               0
1.96363636363636               0.0520859970003518 66.4198911382555 0.998642601911802 -25.1669075197664 0.998642604478591 -25.1669075197663 0.052085997000352 63.2462938222114
! Gamma         4.3520160015469E-32 1723.12109840082 3.6832275100363E-31 1724.78134743329
! Port Impedance         50               0                50               0
1.98181818181818               0.0525423958906309 66.1649171570829 0.998618692972767 -25.3996104740981 0.998618695655908 -25.3996104740981 0.0525423958906309 63.0358618947208
! Gamma         0                1739.0759252742  1.08291188960496E-31 1740.75154698512
! Port Impedance         50               0                50               0
2                              0.0529981122193946 65.9102839125924 0.998594611240068 -25.6323050592941 0.998594613747069 -25.6323050592941 0.0529981122193945 62.8251059688195
! Gamma         7.308629984813E-31 1755.03075219978 2.47348634746703E-32 1756.72174658921
! Port Impedance         50               0                50               0
2.01818181818182               0.053453145788341 65.6559822309837 0.998570357318548 -25.8649908514165 0.998570360012438 -25.8649908514166 0.0534531457883405 62.6140360661844
! Gamma         0                1770.98557917806 2.30028449724648E-31 1772.69194624605
! Port Impedance         50               0                50               0
2.03636363636364               0.0539074783385441 65.401992716318  0.998545933544691 -26.0976682670885 0.998545935928701 -26.0976682670885 0.0539074783385439 62.4026707495067
! Gamma         2.04157248147631E-32 1786.9404062095  2.11309909077134E-31 1788.66214595612
! Port Impedance         50               0                50               0
2.05454545454545               0.0543611108713443 65.1483124347114 0.99852134036487 -26.3303368942727 0.99852134282929 -26.3303368942727 0.0543611108713448 62.1910137767419
! Gamma         1.46155597965687E-32 1802.89523329457 1.84160416935512E-32 1804.63234571988
! Port Impedance         50               0                50               0
2.07272727272727               0.0548140401520632 64.8949375487804 0.998496579048998 -26.5629967503145 0.998496581682613 -26.5629967503144 0.0548140401520635 61.9790689505896
! Gamma         2.04377950567341E-30 1818.85006043378 7.13281223342322E-31 1820.60254553784
! Port Impedance         50               0                50               0
2.09090909090909               0.0552662597274885 64.6418620776856 0.998471651151739 -26.7956478093938 0.998471653537439 -26.7956478093939 0.0552662597274887 61.7668423035259
! Gamma         2.61419365692542E-30 1834.80488762759 3.01102882018249E-31 1836.57274541047
! Port Impedance         50               0                50               0
2.10909090909091               0.0557177620423705 64.3890772936403 0.998446557545101 -27.0282901223639 0.998446560268658 -27.0282901223639 0.0557177620423706 61.5543424616307
! Gamma         2.58856069400935E-31 1850.75971487648 3.13468395521384E-33 1852.54294533825
! Port Impedance         50               0                50               0
2.12727272727273               0.0561685428327214 64.1365765607936 0.998421299870777 -27.2609235602322 0.998421302635539 -27.2609235602322 0.0561685428327218 61.3415763187422
! Gamma         1.20390866257327E-32 1866.71454218093 3.54373796576259E-32 1868.51314532165
! Port Impedance         50               0                50               0
2.14545454545455               0.0566185965119944 63.8843533842128 0.998395879329232 -27.4935480501961 0.99839588200094 -27.4935480501961 0.0566185965119946 61.1285505153966
! Gamma         1.6563206196846E-30 1882.66936954142 4.82073300947742E-32 1884.48334536115
! Port Impedance         50               0                50               0
2.16363636363636               0.0570679192344178 63.6323987436032 0.998370296927665 -27.7261634269131 0.998370299739067 -27.7261634269131 0.0570679192344174 60.9152744025711
! Gamma         1.68001155695148E-30 1898.62419695842 2.38253973885664E-33 1900.45354545724
! Port Impedance         50               0                50               0
2.18181818181818               0.0575165022624819 63.3807093397801 0.998344554445002 -27.9587698311098 0.998344557026776 -27.9587698311098 0.0575165022624815 60.7017509980008
! Gamma         1.80815796673565E-30 1914.57902443243 4.21999495919052E-33 1916.42374561039
! Port Impedance         50               0                50               0
2.2                            0.0579643411977106 63.1292766066649 0.998318652843661 -28.1913671174677 0.998318655381861 -28.1913671174677 0.0579643411977106 60.487989158399
! Gamma         5.60378270553124E-30 1930.53385196391 1.40160261664003E-31 1932.39394582109
! Port Impedance         50               0                50               0
2.21818181818182               0.0584114291704142 62.8780949650377 0.998292593611716 -28.4239553317734 0.998292596098225 -28.4239553317734 0.0584114291704149 60.2739943714153
! Gamma         1.39324370350974E-30 1946.48867955335 4.97740635396176E-32 1948.36414608981
! Port Impedance         50               0                50               0
2.23636363636364               0.0588577625902908 62.6271591791003 0.998266377859132 -28.6565342856625 0.998266380482555 -28.6565342856625 0.0588577625902905 60.0597722495752
! Gamma         1.20918098590993E-31 1962.44350720122 3.32733212527113E-32 1964.33434641704
! Port Impedance         50               0                50               0
2.25454545454545               0.0593033489159102 62.3764859661338 0.998240006174828 -28.8891040432815 0.998240009059342 -28.8891040432815 0.0593033489159097 59.8453059473037
! Gamma         7.89544048896326E-31 1978.398334908   0                1980.3045470715
! Port Impedance         50               0                50               0
2.27272727272727               0.0597482064756786 62.1261090628688 0.998213478750703 -29.1216647894909 0.99821348141883 -29.1216647894909 0.0597482064756786 59.63056135815
! Gamma         1.51517162632488E-31 1994.35316267418 0                1996.27474880765
! Port Impedance         50               0                50               0
2.29090909090909               0.0601921725029861 61.8757641873899 0.998186805993511 -29.3542153956538 0.998186808708276 -29.3542153956538 0.0601921725029857 59.4158050213014
! Gamma         1.76544401035562E-30 2010.30799050022 0                2012.24494738598
! Port Impedance         50               0                50               0
2.30909090909091               0.06063543436808 61.6257650718896 0.998159977932299 -29.5867571475309 0.998159980490193 -29.5867571475308 0.0606354343680805 59.200720633049
! Gamma         2.01749134984911E-31 2026.26281838662 0                2028.21514830465
! Port Impedance         50               0                50               0
2.32727272727273               0.0610778945111686 61.3759561605191 0.998133001228736 -29.8192893562424 0.99813300389391 -29.8192893562424 0.0610778945111689 58.9854651269961
! Gamma         3.45214635262024E-30 2042.21764633385 0                2044.18534878952
! Port Impedance         50               0                50               0
2.34545454545455               0.0615196326632343 61.1264615146041 0.998105872203425 -30.051812317971 0.998105874878513 -30.051812317971 0.0615196326632339 58.7699138494532
! Gamma         3.09347679067739E-31 2058.17247434239 0                2060.15555073742
! Port Impedance         50               0                50               0
2.36363636363636               0.0619604353589701 60.8769627996045 0.998078605003745 -30.2843250721911 0.998078607692816 -30.2843250721912 0.0619604353589703 58.5543870560129
! Gamma         2.02952700083284E-30 2074.1273024127  0                2076.12574927278
! Port Impedance         50               0                50               0
2.38181818181818               0.0624005743531069 60.6278733352231 0.998051183863232 -30.5168289873941 0.998051186578126 -30.5168289873942 0.0624005743531062 58.3384686899885
! Gamma         1.00173462316132E-30 2090.08213054529 0                2092.09595158063
! Port Impedance         50               0                50               0
2.4                            0.062839809052159 60.378869332246  0.998023624833458 -30.7493227100886 0.998023627511322 -30.7493227100886 0.0628398090521596 58.1224852475766
! Gamma         6.40369971067236E-31 2106.03695874062 0                2108.06615140098
! Port Impedance         50               0                50               0
2.41818181818182               0.0632783372643551 60.1302124735094 0.997995916543395 -30.9818072477532 0.997995919144375 -30.9818072477532 0.0632783372643555 57.906173030984
! Gamma         2.41030634703103E-31 2121.99178699918 0                2124.03635394167
! Port Impedance         50               0                50               0
2.43636363636364               0.0637159009497107 59.8815371845703 0.997968076382186 -31.2142813762008 0.997968078875458 -31.2142813762008 0.0637159009497103 57.6899000630284
! Gamma         5.57356305659014E-32 2137.94661532144 0                2140.00655314139
! Port Impedance         50               0                50               0
2.45454545454545               0.06415278965667 59.6332543854539 0.997940086960155 -31.4467464543879 0.99794008938237 -31.446746454388 0.0641527896566698 57.4732527057707
! Gamma         1.23146476023394E-30 2153.90144370787 0                2155.97675557485
! Port Impedance         50               0                50               0
2.47272727272727               0.064588781452289 59.3850635991552 0.997911967566909 -31.6792013286441 0.997911961852224 -31.6792013286442 0.0645887814522886 57.2565337435553
! Gamma         3.84575539928153E-30 2169.85627215898 0                2171.9469565658
! Port Impedance         50               0                50               0
2.49090909090909               0.0650239045035649 59.1369975739908 0.997883709385006 -31.9116461961004 0.997883703760235 -31.9116461961003 0.0650239045035649 57.0397100338087
! Gamma         3.03925919491714E-30 2185.81110067522 0                2187.9171570421
! Port Impedance         50               0                50               0
2.50909090909091               0.0654582799041584 58.8892293034695 0.997855309748177 -32.1440816831051 0.997855304135498 -32.1440816831051 0.0654582799041583 56.8226073303207
! Gamma         7.40260519674365E-33 2201.76592925708 0                2203.8873592185
! Port Impedance         50               0                50               0
2.52727272727273               0.0658917580394681 58.6415546578733 0.997826775987808 -32.3765069948999 0.99782677733498 -32.3765069949   0.0658917580394674 56.6054313523264
! Gamma         1.36382438086766E-31 2217.72075790504 0                2219.85756034486
! Port Impedance         50               0                50               0
2.54545454545455               0.0663243744140642 58.3940364675218 0.997798113899426 -32.6089221666441 0.997798115159531 -32.6089221666441 0.0663243744140643 56.3881191991898
! Gamma         3.6345364644603E-30 2233.67558661957 0                2235.82776102147
! Port Impedance         50               0                50               0
2.56363636363636               0.0667561180629235 58.146661023187  0.99776932166996 -32.8413272791301 0.997769323108608 -32.8413272791301 0.0667561180629238 56.1706844185534
! Gamma         5.23715144696855E-39 2249.63041540115 0                2251.79796187629
! Port Impedance         50               0                50               0
2.58181818181818               0.0671872012328604 57.8996981120243 0.997740386625063 -33.0737234845287 0.997740387514839 -33.0737234845287 0.0671872012328606 55.9528549189189
! Gamma         8.08431097510401E-31 2265.58524425028 0                2267.76816745903
! Port Impedance         50               0                50               0
2.6                            0.0676170650947399 57.6524473674368 0.997711346701808 -33.3061075238071 0.997711347874931 -33.3061075238071 0.0676170650947394 55.7353375849492
! Gamma         1.08870214525706E-31 2281.54007316741 0                2283.73836458857
! Port Impedance         50               0                50               0
2.61818181818182               0.0680462742305329 57.4056223923356 0.997682165453184 -33.5384827165433 0.997682166756192 -33.5384827165433 0.0680462742305321 55.5174121745777
! Gamma         7.96945016358063E-31 2297.49490215305 0                2299.70856643837
! Port Impedance         50               0                50               0
2.63636363636364               0.0684746853637743 57.1590414282132 0.997652853640296 -33.770848179718 0.997652854730562 -33.7708481797181 0.0684746853637737 55.2992622123512
! Gamma         3.17020479036957E-30 2313.44973120765 0                2315.6787709518
! Port Impedance         50               0                50               0
2.65454545454545               0.0689020244082344 56.9123765830741 0.997623430888272 -34.0032022457811 0.997623432066231 -34.003202245781 0.0689020244082343 55.0812189253631
! Gamma         2.27507567618778E-30 2329.40456033169 0                2331.64897043363
! Port Impedance         50               0                50               0
2.67272727272727               0.0693286819105447 56.6661010531945 0.99759387166224 -34.2355472513323 0.99759387275135 -34.2355472513324 0.0693286819105457 54.8628044441418
! Gamma         3.45280190310917E-30 2345.35938952567 0                2347.61917468751
! Port Impedance         50               0                50               0
2.69090909090909               0.0697542980766485 56.4197907766502 0.997564201757563 -34.46788113895  0.997564203032298 -34.46788113895  0.0697542980766489 54.6444469454489
! Gamma         3.27461086831189E-30 2361.31421879006 0                2363.5893755821
! Port Impedance         50               0                50               0
2.70909090909091               0.0701792546875799 56.1735332993531 0.997534395756069 -34.7002061799815 0.997534397254835 -34.7002061799815 0.0701792546875804 54.4260543406843
! Gamma         1.18562279754245E-20 2377.26905199705 0                2379.55957839557
! Port Impedance         50               0                50               0
2.72727272727273               0.0706029540621144 55.9276174171675 0.99750449700243 -34.9325186241797 0.997504498343406 -34.9325186241797 0.0706029540621139 54.2073453344719
! Gamma         5.67923774935606E-21 2393.22387812256 0                2395.52977910259
! Port Impedance         50               0                50               0
2.74545454545455               0.0710258638188591 55.6818300532652 0.997474473692814 -35.1648215507496 0.997474474695374 -35.1648215507496 0.0710258638188587 53.9885268452356
! Gamma         2.84227032032381E-21 2409.1787074554  0                2411.49998138635
! Port Impedance         50               0                50               0
2.76363636363636               0.0714478619507939 55.4362154530854 0.997444335188299 -35.3971139576305 0.997444336414866 -35.3971139576305 0.071447861950793 53.7695566316537
! Gamma         9.20213762410901E-21 2425.13353449811 0                2427.47018406464
! Port Impedance         50               0                50               0
2.78181818181818               0.0718690234586065 55.1906636992075 0.997414077535787 -35.6293964152553 0.99741407893996 -35.6293964152553 0.0718690234586063 53.5505434702829
! Gamma         3.86264521057667E-21 2441.08836447502 0                2443.4403870948
! Port Impedance         50               0                50               0
2.8                            0.0722892237199187 54.9451238335713 0.997383710931998 -35.8616680743812 0.997383712236899 -35.8616680743812 0.0722892237199185 53.3315400176656
! Gamma         2.99633589401283E-25 2457.04319558152 0                2459.41058833289
! Port Impedance         50               0                50               0
2.81818181818182               0.0727086848910071 54.6996329804963 0.997353220156503 -36.0939303926979 0.997353221545054 -36.0939303926979 0.0727086848910075 53.1125062341091
! Gamma         8.76242319312298E-22 2472.99802932535 0                2475.38079094059
! Port Impedance         50               0                50               0
2.83636363636364               0.0731270386457589 54.4544343594726 0.997322633182562 -36.3261812364086 0.997322634747454 -36.3261812364087 0.0731270386457593 52.8932031677099
! Gamma         3.98437680433458E-25 2488.95285957765 0                2491.35099385553
! Port Impedance         50               0                50               0
2.85454545454545               0.07354424224276 54.209741669638  0.997291958174068 -36.5584200399819 0.99729195275366 -36.5584200399819 0.0735442422427596 52.6734182503981
! Gamma         4.23339466470158E-25 2504.90768056861 0                2507.3211980349
! Port Impedance         50               0                50               0
2.87272727272727               0.0739607310102829 53.9647019893089 0.997261157332557 -36.7906496528455 0.997261151661176 -36.7906496528455 0.0739607310102828 52.4539987049992
! Gamma         1.00116569738907E-20 2520.86251291077 0                2523.29139984854
! Port Impedance         50               0                50               0
2.89090909090909               0.0743763084216916 53.7196067748819 0.997230249389391 -37.022868888746 0.997230243822306 -37.0228688887459 0.0743763084216919 52.2346554476266
! Gamma         3.03778491954265E-21 2536.8173460678  0                2539.26159998088
! Port Impedance         50               0                50               0
2.90909090909091               0.0747909102851438 53.4749436814838 0.997199240598636 -37.2550773010994 0.997199234870817 -37.2550773010994 0.0747909102851435 52.0149017163169
! Gamma         6.44542763015137E-23 2552.77217576121 0                2555.23180394812
! Port Impedance         50               0                50               0
2.92727272727273               0.0752045701610152 53.2303102089207 0.997168124557616 -37.487275040081 0.997168128562098 -37.487275040081 0.0752045701610157 51.7951397109165
! Gamma         4.93338930790736E-20 2568.72700654139 0                2571.20200688975
! Port Impedance         50               0                50               0
2.94545454545455               0.0756172276187213 52.985973930361  0.99713691683146 -37.7194619654594 0.997136920821993 -37.7194619654593 0.0756172276187203 51.5751021387207
! Gamma         1.07783319360005E-21 2584.68183497738 0                2587.17221163635
! Port Impedance         50               0                50               0
2.96363636363636               0.0760289511852177 52.7413850567206 0.997105608536794 -37.9516382216658 0.997105612554568 -37.9516382216658 0.0760289511852173 51.3553384999474
! Gamma         0                2600.63666800223 0                2603.14241242864
! Port Impedance         50               0                50               0
2.98181818181818               0.0764397786973937 52.4970192464285 0.9970741979433  -38.1838042135553 0.997074201983539 -38.1838042135553 0.0764397786973937 51.1353723264609
! Gamma         0                2616.59150035126 0                2619.11261610182
! Port Impedance         50               0                50               0
3                              0.0768495016134826 52.2530814506797 0.997042702256637 -38.4159586489058 0.997042706246979 -38.4159586489058 0.0768495016134824 50.9150012515081
! Gamma         0                2632.5463282991  0                2635.08282149548
! Port Impedance         50               0                50               0
