! Touchstone file exported from HFSS 2026.1.0
!        File:           C:/Users/urbaneja/Ansys/13-3-3_super_cell.aedt
!        Generated:      09:21:28 AM Aug 12, 2026
!        Design:         HFSSDesign_Supercell_13_3_13
!        Project:        13-3-3_super_cell
!        Setup:          Setup1
!        Solution:       Sweep_fine_3_14GHz
!
! Variables:
!        stub_length = 12um
!
# GHz S MA R 50.000000
! Terminal data exported
! Port[1] = Port1
! Port[2] = Port2
3                              0.0416121920303815 -118.132820882891 0.99913383952697 -38.3738249503398 0.999133835710186 -38.3738249503398 0.0416121920303817 -138.614829017788 
! Gamma         1.90211625812809E-31 2682.20511504638 1.71196688575315E-31 2578.88136852733 
! Port Impedance         50               0                50               0                
3.1                            0.0426429467334837 -119.653278315308 0.999090377712015 -39.6523097387497 0.999090373965756 -39.6523097387497 0.0426429467334838 -139.651341162192 
! Gamma         1.6770600144133E-29 2771.61197972136 0                2664.84410248117 
! Port Impedance         50               0                50               0                
3.2                            0.0436445946457427 -121.155165817952 0.999047122613166 -40.9307644362779 0.999047118766064 -40.9307644362779 0.043644594645743 -140.706363054606 
! Gamma         1.08453432866032E-30 2861.0188471019  0                2750.80683705258 
! Port Impedance         50               0                50               0                
3.3                            0.0446160586908316 -122.64017570685 0.999004209771128 -42.2091933347884 0.999004205933768 -42.2091933347885 0.0446160586908314 -141.778210962726 
! Gamma         5.84517391198263E-31 2950.42571727529 0                2836.76957562044 
! Port Impedance         50               0                50               0                
3.4                            0.0455566300050224 -124.109447000758 0.998961759543839 -43.4876009342699 0.998961755971792 -43.4876009342698 0.0455566300050233 -142.865754867782 
! Gamma         1.92958675638207E-30 3039.83259032878 0                2922.73231558979 
! Port Impedance         50               0                50               0                
3.5                            0.0464653994632576 -125.564216636666 0.998919901919536 -44.765992775667 0.998919898117214 -44.765992775667 0.0464653994632578 -143.967768914669 
! Gamma         5.11331436440833E-30 3129.23946634965 0                3008.69505863744 
! Port Impedance         50               0                50               0                
3.6                            0.0473414460551535 -127.00541954917 0.998878767021131 -46.0443734157577 0.998878763296706 -46.0443734157576 0.0473414460551536 -145.083327282343 
! Gamma         0                3218.64634705841 0                3094.65780262464 
! Port Impedance         50               0                50               0                
3.7                            0.0481841116863326 -128.434402872516 0.998838472970584 -47.3227494023976 0.998838469261068 -47.3227494023976 0.048184111686333 -146.211095932281 
! Gamma         0                3308.0532273041  0                3180.62054983819 
! Port Impedance         50               0                50               0                
3.8                            0.0489923705684741 -129.851765423897 0.998799154704288 -48.6011255466548 0.998799150887785 -48.6011255466548 0.0489923705684748 -147.350485669412 
! Gamma         0                3397.46011033153 0                3266.58330060542 
! Port Impedance         50               0                50               0                
3.9                            0.0497654381370992 -131.257915033079 0.998760934815178 -49.8795085199502 0.998760931064666 -49.8795085199502 0.0497654381370995 -148.501102006821 
! Gamma         0                3486.86700262596 0                3352.54605188636 
! Port Impedance         50               0                50               0                
4                              0.0505026740844924 -132.654055119082 0.998723927058805 -51.1579059571552 0.998723924486076 -51.1579059571551 0.0505026740844925 -149.661756795228 
! Gamma         0                3576.27389315265 0                3438.50880796558 
! Port Impedance         50               0                50               0                
4.1                            0.051203284578461 -134.040360268863 0.998688252772523 -52.4363248018212 0.99868825019168 -52.4363248018212 0.051203284578461 -150.83228933478 
! Gamma         0                3665.68079070641 0                3524.47156416728 
! Port Impedance         50               0                50               0                
4.2                            0.0518666510137155 -135.417639986748 0.998654020777721 -53.7147728108808 0.998654018071189 -53.7147728108807 0.0518666510137161 -152.011905635013 
! Gamma         0                3755.08768831615 0                3610.43432381426 
! Port Impedance         50               0                50               0                
4.3                            0.0524918382382715 -136.786196633683 0.998621354229391 -54.9932573289414 0.998621352021773 -54.9932573289414 0.0524918382382707 -153.2003180242  
! Gamma         0                3844.49459189409 0                3696.39708801917 
! Port Impedance         50               0                50               0                
4.4                            0.0530784299920984 -138.146556263858 0.998590351588339 -56.2717876596054 0.998590341558452 -56.2717876596054 0.0530784299920987 -154.397019055354 
! Gamma         0                3933.90149670751 0                3782.35985395311 
! Port Impedance         50               0                50               0                
4.5                            0.053625643104678 -139.499020615319 0.998561114742436 -57.5503721123583 0.998561105254739 -57.5503721123583 0.053625643104677 -155.601723609398 
! Gamma         0                4023.30840494814 0                3868.32262360001 
! Port Impedance         50               0                50               0                
4.6                            0.054132735650068 -140.843765453724 0.998533753367158 -58.8290196477792 0.998533743670475 -58.8290196477791 0.054132735650067 -156.814273841834 
! Gamma         0                4112.7153201955  0                3954.28539548668 
! Port Impedance         50               0                50               0                
4.7                            0.0545990965104025 -142.181162490568 0.998508361713345 -60.1077396281039 0.998508351947557 -60.1077396281039 0.0545990965104015 -158.03431676564 
! Gamma         0                4202.12224248042 0                4040.24817048402 
! Port Impedance         50               0                50               0                
4.8                            0.0550244005666752 -143.511607738429 0.998485015014215 -61.3865427310331 0.998485005133586 -61.3865427310331 0.0550244005666746 -159.261477723637 
! Gamma         0                4291.52916410526 0                4126.21094812537 
! Port Impedance         50               0                50               0                
4.9                            0.0554076616286669 -144.835151464131 0.998463820578088 -62.6654379441747 0.9984638105922  -62.6654379441747 0.0554076616286665 -160.49572442422 
! Gamma         0                4380.93609403035 0                4212.1737313136  
! Port Impedance         50               0                50               0                
5                              0.0557487521060713 -146.152092388469 0.998444833663872 -63.9444367168701 0.998444824418032 -63.9444367168701 0.0557487521060713 -161.736781045271 
! Gamma         0                4470.34302346308 0                4298.13651535721 
! Port Impedance         50               0                50               0                
5.1                            0.0560468946995944 -147.462530861235 0.998428142012682 -65.2235492789733 0.998428132829884 -65.2235492789734 0.0560468946995939 -162.984567696712 
! Gamma         0                4559.7499570429  0                4384.0993040122  
! Port Impedance         50               0                50               0                
5.2                            0.0563015195412227 -148.766496070917 0.99841381606477 -66.502786709672 0.998413806838468 -66.5027867096719 0.0563015195412222 -164.239077348426 
! Gamma         0                4649.15689897799 0                4470.06209529213 
! Port Impedance         50               0                50               0                
5.3                            0.0565122461637383 -150.064220088602 0.998401910905152 -67.7821602265791 0.998401901224151 -67.782160226579 0.0565122461637373 -165.500100364556 
! Gamma         0                4738.56384215906 0                4556.02489087521 
! Port Impedance         50               0                50               0                
5.4                            0.0566785899692309 -151.355689804104 0.998392481311433 -69.0616816014536 0.998392471996359 -69.0616816014535 0.0566785899692312 -166.767673398804 
! Gamma         0                4827.97078952479 0                4641.98768959173 
! Port Impedance         50               0                50               0                
5.5                            0.056799950253468 -152.640929368712 0.998385584494378 -70.3413620838909 0.998385574803756 -70.3413620838909 0.0567999502534668 -168.041794799069 
! Gamma         0                4917.37774357609 0                4727.95049226274 
! Port Impedance         50               0                50               0                
5.6                            0.0568760010489575 -153.9199582951  0.998381254766041 -71.6212140858618 0.998381245387325 -71.6212140858618 0.0568760010489582 -169.322469876624 
! Gamma         0                5006.78470303265 0                4813.91329844588 
! Port Impedance         50               0                50               0                
5.7                            0.0569063077023663 -155.192777533512 0.998379527875152 -72.9012501767395 0.998379518323144 -72.9012501767395 0.056906307702367 -170.609722819968 
! Gamma         0                5096.19166681334 0                4899.87610870138 
! Port Impedance         50               0                50               0                
5.8                            0.0568904548691869 -156.459329546174 0.998380431305549 -74.181482131522 0.998380421821111 -74.181482131522 0.0568904548691873 -171.903634716871 
! Gamma         0                5185.59863564896 0                4985.83892275717 
! Port Impedance         50               0                50               0                
5.9                            0.0568282566195847 -157.719594720025 0.998383973549477 -75.4619231400423 0.998383964143413 -75.4619231400423 0.0568282566195841 -173.20425156006 
! Gamma         0                5275.00560656923 0                5071.80173992371 
! Port Impedance         50               0                50               0                
6                              0.0567189973109369 -158.973350567842 0.998390186493542 -76.7425855674637 0.998390177336233 -76.7425855674637 0.0567189973109377 -174.511820567084 
! Gamma         0                5364.41258697305 0                5157.76456202108 
! Port Impedance         50               0                50               0                
6.1                            0.0565626294908058 -160.22055308678 0.998399057791725 -78.0234823050154 0.998399048121927 -78.0234823050154 0.0565626294908053 -175.826411523251 
! Gamma         0                5453.81957093598 0                5243.72738755604 
! Port Impedance         50               0                50               0                
6.2                            0.0563587492056404 -161.461012245428 0.998410587234819 -79.3046263854074 0.99841057790539 -79.3046263854074 0.0563587492056395 -177.148240525387 
! Gamma         0                5543.22655992714 0                5329.6902175483  
! Port Impedance         50               0                50               0                
6.3                            0.0561070833412323 -162.694520203255 0.998424761455343 -80.5860309808287 0.998424752352786 -80.5860309808287 0.0561070833412322 -178.477541758403 
! Gamma         0                5632.63355405327 0                5415.65305187211 
! Port Impedance         50               0                50               0                
6.4                            0.0558074281954343 -163.920839666032 0.998441555757417 -81.8677091939627 0.998441546437812 -81.8677091939627 0.0558074281954351 -179.814578721893 
! Gamma         0                5722.04055283457 0                5501.61588978819 
! Port Impedance         50               0                50               0                
6.5                            0.0554594209088804 -165.139667547049 0.998460946592924 -83.1496743681242 0.998460937339897 -83.1496743681242 0.0554594209088807 178.840318810801 
! Gamma         0                5811.44755812465 0                5587.57873319023 
! Port Impedance         50               0                50               0                
6.6                            0.0550628475728217 -166.350662038263 0.998482895065632 -84.4319394957479 0.998482886130602 -84.4319394957479 0.055062847572821 177.486783046767 
! Gamma         0                5900.85457179241 0                5673.54158017621 
! Port Impedance         50               0                50               0                
6.7                            0.0546177194708276 -167.553496789919 0.998507342954191 -85.7145181364487 0.998507333726784 -85.7145181364487 0.0546177194708277 176.124460517022 
! Gamma         0                5990.26158699203 0                5759.50443191955 
! Port Impedance         50               0                50               0                
6.8                            0.054123626317911 -168.747677584635 0.998534246563889 -86.997423413861 0.998534238064717 -86.997423413861 0.0541236263179111 174.752830756913 
! Gamma         0                6079.6686116888  0                5845.46728803764 
! Port Impedance         50               0                50               0                
6.9                            0.0535806592207748 -169.932753869289 0.998563529140038 -88.280668427051 0.99856352035628 -88.280668427051 0.0535806592207755 173.371417015187 
! Gamma         0                6169.07563929601 0                5931.43014895112 
! Port Impedance         50               0                50               0                
7                              0.0529884907078406 -171.108113822502 0.998595127511948 -89.5642663557934 0.998595118661416 -89.5642663557934 0.0529884907078397 171.979581110915 
! Gamma         0                6258.48267490055 0                6017.39301436634 
! Port Impedance         50               0                50               0                
7.1                            0.0523472203877202 -172.273141449814 0.998628948849468 -90.8482304866628 0.998628939874648 -90.8482304866628 0.0523472203877206 170.576680476488 
! Gamma         1.58032387715326E-21 6347.88971607328 0                6103.35588356332 
! Port Impedance         50               0                50               0                
7.2                            0.0516567068521046 -173.427081491005 0.998664903127194 -92.1325734370343 0.998664899020859 -92.1325734370343 0.0516567068521046 169.161934616937 
! Gamma         0                6437.29676151335 0                6189.31875899209 
! Port Impedance         50               0                50               0                
7.3                            0.0509168685030506 -174.569091959671 0.998702897221345 -93.4173083302689 0.998702892799143 -93.4173083302689 0.0509168685030514 167.734475299134 
! Gamma         5.03858382459969E-22 6526.70381661039 0                6275.28163869114 
! Port Impedance         50               0                50               0                
7.4                            0.0501278329087301 -175.698224346025 0.998742812257603 -94.7024478841369 0.998742807583376 -94.7024478841369 0.0501278329087311 166.293328577752 
! Gamma         1.40769949442387E-21 6616.11087615821 0                6361.24452268587 
! Port Impedance         50               0                50               0                
7.5                            0.0492895631883277 -176.813369765427 0.998784533286664 -95.9880043629045 0.998784528308657 -95.9880043629045 0.0492895631883284 164.837361039618 
! Gamma         0                6705.51794117056 0                6447.20741345927 
! Port Impedance         50               0                50               0                
7.6                            0.0484021737232325 -177.913291044047 0.99882793003795 -97.2739901120461 0.998827925787939 -97.2739901120461 0.0484021737232327 163.365310819955 
! Gamma         0                6794.92501289752 0                6533.17030819165 
! Port Impedance         50               0                50               0                
7.7                            0.0474656410342689 -178.996548836885 0.998872876287056 -98.560417024604 0.998872866214933 -98.560417024604 0.0474656410342692 161.875714787677 
! Gamma         0                6884.33209529103 0                6619.13320752121 
! Port Impedance         50               0                50               0                
7.8                            0.0464802843614609 179.938522154637 0.998919212212124 -99.8472973815343 0.998919202841183 -99.8472973815343 0.0464802843614598 160.366883082294 
! Gamma         1.940728556867E-21 6973.73918199838 0                6705.09611308652 
! Port Impedance         50               0                50               0                
7.9                            0.0454462703226422 178.89382720362  0.998966784952521 -101.134642306645 0.99896678402695 -101.134642306645 0.0454462703226415 158.83688818309  
! Gamma         3.54483073978788E-21 7063.14627380763 0                6791.05902332606 
! Port Impedance         50               0                50               0                
8                              0.0443637902535943 177.871570073966 0.999015442253236 -102.422463607546 0.999015442507392 -102.422463607546 0.044363790253595 157.283502710942 
! Gamma         1.49348785630809E-21 7152.55337307381 0                6877.02193922934 
! Port Impedance         50               0                50               0                
8.1                            0.0432331126479839 176.874328156344 0.999065011820104 -103.71077197835 0.999065011947886 -103.71077197835 0.0432331126479843 155.704127886955 
! Gamma         0                7241.96047990061 0                6962.98486017063 
! Port Impedance         50               0                50               0                
8.2                            0.0420545459179746 175.905108549436 0.999115315935814 -104.999577869916 0.999115316566483 -104.999577869916 0.042054545917974 154.095735710734 
! Gamma         1.41045941159236E-22 7331.36759639739 0                7048.94778674666 
! Port Impedance         50               0                50               0                
8.3                            0.0408286593694963 174.967470403026 0.999166162616058 -106.288891746522 0.999166162673296 -106.288891746522 0.040828659369496 152.454746103929 
! Gamma         3.3334755532041E-21 7420.77471538682 0                7134.91071906553 
! Port Impedance         50               0                50               0                
8.4                            0.0395557860592073 174.065562754266 0.999217367321151 -107.578722573065 0.999217359948407 -107.578722573065 0.0395557860592068 150.776992099604 
! Gamma         3.827062223736E-22 7510.18184315773 0                7220.87365684261 
! Port Impedance         50               0                50               0                
8.5                            0.0382364902717108 173.204385859354 0.999268721620806 -108.86908105145 0.99926871441756 -108.86908105145 0.0382364902717106 149.057452037745 
! Gamma         1.29458922480927E-30 7599.58898042254 0                7306.83660001521 
! Port Impedance         50               0                50               0                
8.6                            0.0368715374451975 172.389948270624 0.999320011194679 -110.159975199249 0.999320016150344 -110.159975199249 0.0368715374451968 147.290101330878 
! Gamma         2.25330913036835E-21 7688.99612237425 0                7392.79954922345 
! Port Impedance         50               0                50               0                
8.7                            0.0354616166126906 171.629410509173 0.999371036461906 -111.45141462351 0.999371041693467 -111.45141462351 0.0354616166126909 145.467760243805 
! Gamma         3.29558433146093E-31 7778.40327267297 0                7478.76250415771 
! Port Impedance         50               0                50               0                
8.8                            0.0340076603981166 170.931544556949 0.999421573225753 -112.74340645086 0.999421571229805 -112.74340645086 0.0340076603981164 143.581642541331 
! Gamma         2.8842329465686E-24 7867.81043141237 0                7564.7254646508  
! Port Impedance         50               0                50               0                
8.9                            0.0325107774119277 170.307199804439 0.999471385720191 -114.035959274695 0.99947138419802 -114.035959274695 0.0325107774119291 141.62088164617  
! Gamma         5.31490214340855E-22 7957.21759787438 0                7650.68843172405 
! Port Impedance         50               0                50               0                
9                              0.0309723527348262 169.769747994441 0.99952024204862 -115.329079448991 0.999520241149327 -115.329079448991 0.0309723527348261 139.572093107579 
! Gamma         3.45961291761584E-22 8046.62477029904 0                7736.65140439512 
! Port Impedance         50               0                50               0                
9.1                            0.029393929888013 169.336018898497 0.999567905395798 -116.622773579594 0.999567904783929 -116.622773579594 0.0293939298880132 137.418433942316 
! Gamma         1.82832531190951E-21 8136.03195194642 0                7822.61438348928 
! Port Impedance         50               0                50               0                
9.2                            0.0277775413729456 169.02741763202  0.999614127647941 -117.917046831926 0.999614131651407 -117.917046831926 0.0277775413729455 135.138488704129 
! Gamma         2.81619063345096E-30 8225.43914221017 0                7908.57736861537 
! Port Impedance         50               0                50               0                
9.3                            0.0261256893326544 168.871415464647 0.999658664979952 -119.211906443042 0.99965866686799 -119.211906443042 0.0261256893326532 132.70477164927  
! Gamma         4.17048763773489E-30 8314.84633948287 0                7994.54035992508 
! Port Impedance         50               0                50               0                
9.4                            0.0244415999002377 168.904010980218 0.999701257243866 -120.50735641729 0.999701261704547 -120.50735641729 0.024441599900238 130.081276185198 
! Gamma         2.05810315248428E-30 8404.25354497769 0                8080.50335750479 
! Port Impedance         50               0                50               0                
9.5                            0.0227294953559778 169.172998362866 0.999741649723081 -121.803400354587 0.999741653573911 -121.803400354587 0.0227294953559779 127.220200927961 
! Gamma         8.30935494454339E-30 8493.66075777616 0                8166.46636162141 
! Port Impedance         50               0                50               0                
9.6                            0.0209949491453429 169.742722395327 0.999779580589547 -123.100043192271 0.999779582936639 -123.100043192271 0.0209949491453427 124.057191220132 
! Gamma         8.99742149034705E-23 8583.06798026153 0                8252.42937176216 
! Port Impedance         50               0                50               0                
9.7                            0.0192457171269126 170.701766281852 0.999814781841744 -124.397286575782 0.999814786225573 -124.397286575782 0.0192457171269125 120.503660566584 
! Gamma         2.36686043737878E-21 8672.47521020714 0                8338.39238864189 
! Port Impedance         50               0                50               0                
9.8                            0.017492689461113 172.17401938052  0.999846989591811 -125.695134211279 0.999846992811913 -125.695134211279 0.017492689461113 116.435712196918 
! Gamma         2.31517584656416E-21 8761.88245041025 0                8424.35541185536 
! Port Impedance         50               0                50               0                
9.9                            0.0157518283516475 174.335517140296 0.999875931112721 -126.993587226526 0.999875933398055 -126.993587226526 0.0157518283516469 111.677308406652 
! Gamma         1.89530413751363E-21 8851.28969737455 0                8510.31844227081 
! Port Impedance         50               0                50               0                
10                             0.0140469903976851 177.438617687183 0.999901335720451 -128.292646590566 0.999901336605765 -128.292646590566 0.0140469903976843 105.976089131688 
! Gamma         0                8940.69695538858 0                8596.28147868632 
! Port Impedance         50               0                50               0                
10.1                           0.0124152096245701 -178.156660183439 0.999922929764891 -129.592312300869 0.999922926865042 -129.592312300869 0.0124152096245694 98.9720355817007 
! Gamma         0                9030.1042187595  0                8682.24452206838 
! Port Impedance         50               0                50               0                
10.2                           0.010914455208718 -171.959710954845 0.999940437913776 -130.892584681656 0.999940433205797 -130.892584681656 0.0109144552087181 90.1745415915313 
! Gamma         0                9119.51149098529 0                8768.20757242825 
! Port Impedance         50               0                50               0                
10.3                           0.00963483798837402 -163.39249939458 0.999953587116525 -132.193462643315 0.999953580625955 -132.193462643315 0.00963483798837433 79.0055741079434 
! Gamma         0                9208.91877328315 0                8854.17062926192 
! Port Impedance         50               0                50               0                
10.4                           0.00870633930666896 -152.051556367529 0.999962103585051 -133.494944340394 0.999962094634349 -133.494944340394 0.0087063393066678 65.0616676867359 
! Gamma         0                9298.32606674064 0                8940.13369338117 
! Port Impedance         50               0                50               0                
10.5                           0.00828160215639446 -138.32903317798 0.999965712935459 -134.797027437151 0.999965700954251 -134.797027437151 0.00828160215639366 48.7349783036709 
! Gamma         0                9387.73336530058 0                9026.096765215   
! Port Impedance         50               0                50               0                
10.6                           0.00846909698502459 -123.898289301568 0.999964148561834 -136.099708622781 0.999964124548238 -136.099708622781 0.00846909698502477 31.6988720560081 
! Gamma         0                9477.14067508189 0                9112.05984281462 
! Port Impedance         50               0                50               0                
10.7                           0.00926085634886688 -110.925329621114 0.999957130083266 -137.402984443147 0.999957104617499 -137.402984443147 0.00926085634886612 16.1193607348131 
! Gamma         0                9566.54799500817 0                9198.02292836164 
! Port Impedance         50               0                50               0                
10.8                           0.0105467368487322 -100.618586354336 0.999944394985764 -138.706850066489 0.999944368262677 -138.706850066489 0.0105467368487323 3.20488622135371 
! Gamma         0                9655.95532280937 0                9283.98602110515 
! Port Impedance         50               0                50               0                
10.9                           0.0121928122751363 -92.9898204620987 0.999925679643941 -140.011300412603 0.999925650159175 -140.011300412603 0.0121928122751366 -7.0327803631074 
! Gamma         0                9745.36266017249 0                9369.9491211751  
! Port Impedance         50               0                50               0                
11                             0.0140917680669714 -87.5182409716113 0.999900727446373 -141.31632905484 0.999900684767097 -141.31632905484 0.0140917680669713 -15.114417138067 
! Gamma         0                9834.770008539   0                9455.91222835543 
! Port Impedance         50               0                50               0                
11.1                           0.0161705303619356 -83.6436943753305 0.999869270017138 -142.621930447205 0.999869226834703 -142.621930447205 0.0161705303619349 -21.6001665190805 
! Gamma         0                9924.17736540941 0                9541.87534285998 
! Port Impedance         50               0                50               0                
11.2                           0.0183818535981346 -80.9241286918562 0.999831061545077 -143.928096655634 0.999831017365555 -143.928096655634 0.0183818535981352 -26.9320646194119 
! Gamma         0                10013.5847327815 0                9627.83846530821 
! Port Impedance         50               0                50               0                
11.3                           0.020695138582916 -79.0429100000948 0.999785854566721 -145.234819536432 0.999785810804675 -145.234819536432 0.0206951385829162 -31.4267290727688 
! Gamma         0                10102.9921094088 0                9713.80159517333 
! Port Impedance         50               0                50               0                
11.4                           0.0230901388737352 -77.7790693868282 0.999733410817631 -146.542090423587 0.999733363586778 -146.542090423587 0.0230901388737353 -35.3051114603482 
! Gamma         0                10192.3994939446 0                9799.76473280558 
! Port Impedance         50               0                50               0                
11.5                           0.0255530132109764 -76.9780151384451 0.999673490998116 -147.849900205319 0.999673445894869 -147.849900205319 0.0255530132109759 -38.7217852721938 
! Gamma         0                10281.8068901406 0                9885.72787738692 
! Port Impedance         50               0                50               0                
11.6                           0.0280739589877483 -76.5305505962755 0.999605869690727 -149.158238587516 0.999605827780808 -149.158238587516 0.0280739589877479 -41.7859265787556 
! Gamma         0                10371.2142957117 0                9971.69103066959 
! Port Impedance         50               0                50               0                
11.7                           0.0306457550381577 -76.357979423716 0.999530326253821 -150.467095010586 0.999530290834256 -150.467095010586 0.0306457550381581 -44.576210597455 
! Gamma         0                10460.6217122233 0                10057.6541911198 
! Port Impedance         50               0                50               0                
11.8                           0.033262910141735 -76.4027029211511 0.999446666110857 -151.776457245212 0.99944660648666 -151.776457245212 0.0332629101417349 -47.1502115692723 
! Gamma         0                10550.0291399707 0                10143.6173601242 
! Port Impedance         50               0                50               0                
11.9                           0.035921131162953 -76.6217803805445 0.999354634445996 -153.086315890413 0.999354621384849 -153.086315890413 0.0359211311629539 -49.5508514002795 
! Gamma         0                10639.4365764354 0                10229.5805367083 
! Port Impedance         50               0                50               0                
12                             0.0386168305501832 -76.982773670312 0.999254173735063 -154.39665581695 0.999254010284471 -154.39665581695 0.0386168305501838 -51.8105379635863 
! Gamma         0                10728.8440220964 0                10315.5437214078 
! Port Impedance         50               0                50               0                
12.1                           0.041347121435017 -77.4602240340256 0.99914491122613 -155.707464350107 0.999144773027926 -155.707464350107 0.041347121435017 -53.9547046661891 
! Gamma         0                10818.2514816064 0                10401.5069139469 
! Port Impedance         50               0                50               0                
12.2                           0.044109418914678 -78.0348493281672 0.999026750539746 -157.018728164269 0.99902666132192 -157.018728164269 0.0441094189146781 -56.0026070003706 
! Gamma         0                10907.658948343  0                10487.4701151099 
! Port Impedance         50               0                50               0                
12.3                           0.0469014799287965 -78.6910321658688 0.998899525774133 -158.330432573906 0.998899514350261 -158.330432573906 0.0469014799287978 -57.9698329819432 
! Gamma         0                10997.0664269995 0                10573.4333245661 
! Port Impedance         50               0                50               0                
12.4                           0.0497212715536548 -79.4163731254239 0.998763087097042 -159.642562978073 0.998763178217225 -159.642562978073 0.0497212715536547 -59.8687528307232 
! Gamma         0                11086.4739179475 0                10659.3965419821 
! Port Impedance         50               0                50               0                
12.5                           0.0525669083370708 -80.200911833739 0.998617306760135 -160.955103494991 0.998617501816856 -160.955103494991 0.0525669083370712 -61.7092951562428 
! Gamma         0                11175.8814179262 0                10745.3597676404 
! Port Impedance         50               0                50               0                
12.6                           0.055436610144998 -81.0362691458626 0.998461916573732 -162.268041257664 0.998462500879985 -162.268041257664 0.0554366101449983 -63.4998133694647 
! Gamma         0                11265.2889289185 0                10831.3230020873 
! Port Impedance         50               0                50               0                
12.7                           0.0583285827440767 -81.914637632243 0.998295742005035 -163.58136639718 0.998299135718482 -163.58136639718 0.058328582744077 -65.2480951621177 
! Gamma         0                11354.6964506025 0                10917.2862449438 
! Port Impedance         50               0                50               0                
12.8                           0.061241016525598 -82.8316103202324 0.998120531797938 -164.895061515804 0.998125483001881 -164.895061515804 0.0612410165255977 -66.9585127113753 
! Gamma         0                11444.1039844842 0                11003.2494964241 
! Port Impedance         50               0                50               0                
12.9                           0.0641730419906873 -83.7830184051107 0.997936108991401 -166.20908553464 0.99794146309445 -166.20908553464 0.0641730419906878 -68.6351526641702 
! Gamma         0                11533.5115291273 0                11089.2127563603 
! Port Impedance         50               0                50               0                
13                             0.0671230853373507 -84.7661023720506 0.99774394146074 -167.523424358451 0.99774546358793 -167.523424358451 0.0671230853373504 -70.2807463448504 
! Gamma         0                11622.9190859377 0                11175.1760251473 
! Port Impedance         50               0                50               0                
13.1                           0.0700893744615007 -85.7738778711238 0.997539824980658 -168.838081545051 0.997541606528732 -168.838081545051 0.0700893744615008 -71.9022852189778 
! Gamma         0                11712.3266520121 0                11261.1393027619 
! Port Impedance         50               0                50               0                
13.2                           0.0730704171810574 -86.8052660487053 0.997325823023994 -170.153038443812 0.997327745026267 -170.153038443812 0.0730704171810576 -73.5008108389188 
! Gamma         0                11801.7342314986 0                11347.1025888713 
! Port Impedance         50               0                50               0                
13.3                           0.0760652372780186 -87.8554215171026 0.997098721497529 -171.468256933317 0.997106964679126 -171.468256933317 0.0760652372780187 -75.081092349531 
! Gamma         0                11891.1418212163 0                11433.0658845807 
! Port Impedance         50               0                50               0                
13.4                           0.0790720982630854 -88.9300710258747 0.996869100073646 -172.78371799546 0.996868699413853 -172.78371799546 0.0790720982630853 -76.6373649650449 
! Gamma         0                11980.5494231348 0                11519.0291886635 
! Port Impedance         50               0                50               0                
13.5                           0.0820889910467475 -90.0226828269496 0.996631176560697 -174.099443308444 0.996618830424913 -174.099443308444 0.0820889910467475 -78.1762037899385 
! Gamma         0                12069.9570359516 0                11604.9925022168 
! Port Impedance         50               0                50               0                
13.6                           0.0851162173630231 -91.1170097023657 0.996363289485608 -175.415385635367 0.996378770693508 -175.415385635367 0.0851162173630232 -79.7137615683675 
! Gamma         0                12159.3646615277 0                11690.9558248484 
! Port Impedance         50               0                50               0                
13.7                           0.0881485646833134 -92.2555776703199 0.996131369736574 -176.731543850895 0.996083308576725 -176.731543850895 0.0881485646833135 -81.2075100314698 
! Gamma         0                12248.7722995405 0                11776.9191563047 
! Port Impedance         50               0                50               0                
13.8                           0.0911907066632611 -93.3650763611483 0.995824884234644 -178.047890154258 0.99584201069692 -178.047890154258 0.0911907066632611 -82.7307039473674 
! Gamma         0                12338.179947462  0                11862.8824975173 
! Port Impedance         50               0                50               0                
13.9                           0.0942369568858881 -94.5218072497048 0.995565284718434 -179.36428419358 0.995534307162183 -179.36428419358 0.0942369568858887 -84.2067611374563 
! Gamma         0                12427.5876087474 0                11948.845847687  
! Port Impedance         50               0                50               0                
14                             0.0972859151804361 -95.6496296614913 0.995230305814955 179.318913377684 0.995282644549691 179.318913377684 0.0972859151804359 -85.7125435831411 
! Gamma         0                12516.9952816227 0                12034.8092072632 
! Port Impedance         50               0                50               0                
