! Touchstone file exported from HFSS 2026.1.0
!        File:           C:/Users/urbaneja/Ansys/16-2-16_super_cell.aedt
!        Generated:      01:35:12 PM Aug 12, 2026
!        Design:         HFSSDesign_Supercell_16_2_16_Test
!        Project:        16-2-16_super_cell
!        Setup:          Setup1
!        Solution:       Sweep_16_2_16_fine
!
! Variables:
!        stub_length = 12um
!
# GHz S MA R 50.000000
! Terminal data exported
! Port[1] = Port1
! Port[2] = Port2
3                              0.0741409367695987 -136.464057344352 0.997247774201832 -45.0107763177159 0.997247772541682 -45.0107763177159 0.0741409367695992 -133.55749529108 
! Gamma         4.39324585099247E-31 2540.66717009482 0                2565.8548008529  
! Port Impedance         50               0                50               0                
3.1                            0.0759599556518676 -137.893223123177 0.997110869768091 -46.5064349367631 0.997110868291512 -46.5064349367631 0.0759599556518679 -135.11964675035 
! Gamma         5.3644558969419E-21 2625.35610148538 0                2651.38331719999 
! Port Impedance         50               0                50               0                
3.2                            0.0777196916838915 -139.325402792434 0.996975250998552 -48.0017670149573 0.996975249414697 -48.0017670149573 0.0777196916838906 -136.678131237481 
! Gamma         7.89043814396656E-24 2710.04502320013 0                2736.9118212336  
! Port Impedance         50               0                50               0                
3.3                            0.0794164647298713 -140.76113061694 0.99684152532842 -49.4967715827587 0.99684152383442 -49.4967715827587 0.0794164647298713 -138.232412548577 
! Gamma         0                2794.73394489028 0                2822.44035258831 
! Port Impedance         50               0                50               0                
3.4                            0.0810502978655753 -142.198541650088 0.99671001383103 -50.9914647157763 0.996710011367777 -50.9914647157763 0.0810502978655761 -139.784387781465 
! Gamma         5.17618820867737E-24 2879.42287823954 0                2907.9688671055  
! Port Impedance         50               0                50               0                
3.5                            0.0826193705147423 -143.638465351011 0.996581176711822 -52.4858554750242 0.996581174543838 -52.4858554750241 0.0826193705147429 -141.333245599038 
! Gamma         8.53878349576784E-22 2964.11181224845 0                2993.49739122541 
! Port Impedance         50               0                50               0                
3.6                            0.0841225992059849 -145.080311174301 0.996455413302696 -53.979957565194 0.99645541089675 -53.979957565194 0.084122599205985 -142.879603956087 
! Gamma         0                3048.80074840718 0                3079.02591406138 
! Port Impedance         50               0                50               0                
3.7                            0.085558441815002 -146.524095417402 0.996333154634462 -55.4737836798459 0.99633315263747 -55.4737836798459 0.0855584418150018 -144.42347194229 
! Gamma         9.71431738836832E-24 3133.48968632972 0                3164.55444289194 
! Port Impedance         50               0                50               0                
3.8                            0.0869259525710215 -147.969483472704 0.996214776608791 -56.967350275429 0.996214774235724 -56.967350275429 0.0869259525710211 -145.965217078152 
! Gamma         1.68489136945631E-22 3218.17862581278 0                3250.08296920432 
! Port Impedance         50               0                50               0                
3.9                            0.0882236439744871 -149.416509501325 0.996100693140139 -58.4606726091417 0.996100690901004 -58.4606726091417 0.0882236439744885 -147.504835716958 
! Gamma         0                3302.86756537371 0                3335.61150129996 
! Port Impedance         50               0                50               0                
4                              0.089450523525649 -150.864891179497 0.99599126806338 -59.9537692371012 0.995991265836942 -59.9537692371012 0.0894505235256501 -149.042647294705 
! Gamma         8.77708151073877E-23 3387.55650718038 0                3421.14003447846 
! Port Impedance         50               0                50               0                
4.1                            0.0906054860478603 -152.314504551575 0.995886865096346 -61.4466590916685 0.995886862913972 -61.4466590916685 0.0906054860478603 -150.578813631762 
! Gamma         5.60603692159764E-25 3472.24545280318 0                3506.66856658098 
! Port Impedance         50               0                50               0                
4.2                            0.0916868766815304 -153.765412511327 0.995787888415507 -62.9393606193062 0.99578788633612 -62.9393606193062 0.0916868766815307 -152.113308727285 
! Gamma         0                3556.9344036205  0                3592.19711208505 
! Port Impedance         50               0                50               0                
4.3                            0.0926947201990798 -155.217275124826 0.995694577108966 -64.4318982520829 0.995694575063168 -64.4318982520829 0.0926947201990801 -153.64652137934 
! Gamma         1.49614737213612E-23 3641.62335518149 0                3677.72564776366 
! Port Impedance         50               0                50               0                
4.4                            0.0936273690212777 -156.670293185246 0.995607311052509 -65.9242925695564 0.995607308992404 -65.9242925695563 0.0936273690212784 -155.178291953866 
! Gamma         7.23443551059927E-23 3726.31230472118 0                3763.25419435807 
! Port Impedance         50               0                50               0                
4.5                            0.0944840750002078 -158.124169642605 0.995526374278331 -67.4165674378527 0.995526371955535 -67.4165674378528 0.094484075000208 -156.708965233101 
! Gamma         0                3811.00126058558 0                3848.78274026085 
! Port Impedance         50               0                50               0                
4.6                            0.0952637824244213 -159.578954569599 0.995452065073769 -68.9087471211423 0.99545206296273 -68.9087471211423 0.0952637824244206 -158.238539672686 
! Gamma         0                3895.6902180953  0                3934.31129251805 
! Port Impedance         50               0                50               0                
4.7                            0.0959658073499212 -161.034519166843 0.995384631689328 -70.4008574486203 0.995384630500219 -70.4008574486203 0.0959658073499214 -159.767195730398 
! Gamma         0                3980.37918037902 0                4019.83984542662 
! Port Impedance         50               0                50               0                
4.8                            0.0965893864424331 -162.490788992679 0.995324314469098 -71.8929249192595 0.995324313919825 -71.8929249192595 0.0965893864424334 -161.29506084584 
! Gamma         0                4065.06814997084 0                4105.36839753904 
! Port Impedance         50               0                50               0                
4.9                            0.0971336995110217 -163.947872796837 0.99527134258274 -73.3849763404488 0.995271341631093 -73.3849763404488 0.0971336995110216 -162.822079884061 
! Gamma         2.04606801933809E-23 4149.75711528947 0                4190.89695918044 
! Port Impedance         50               0                50               0                
5                              0.0975983311563758 -165.405602746816 0.995225887134435 -74.8770404247723 0.995225886464203 -74.8770404247723 0.0975983311563767 -164.348478102728 
! Gamma         5.39148123177709E-24 4234.4460826264  0                4276.42551860023 
! Port Impedance         50               0                50               0                
5.1                            0.0979820054566477 -166.863972136726 0.995188187168912 -76.3691447057363 0.995188185888902 -76.3691447057362 0.0979820054566471 -165.874317274747 
! Gamma         7.94043664904582E-24 4319.13505868414 0                4361.95408631552 
! Port Impedance         50               0                50               0                
5.2                            0.0982848017912847 -168.322942269944 0.995158328383428 -77.8613196640842 0.995158327565417 -77.8613196640842 0.0982848017912853 -167.399697058225 
! Gamma         9.86162933144122E-23 4403.82403362045 0                4447.48265305616 
! Port Impedance         50               0                50               0                
5.3                            0.0985056926476469 -169.782471888577 0.995136487813261 -79.3535945178373 0.995136486947745 -79.3535945178373 0.0985056926476473 -168.924717147098 
! Gamma         8.063258152792E-22 4488.51301719567 0                4533.01122224748 
! Port Impedance         50               0                50               0                
5.4                            0.0986444297685453 -171.242617209828 0.995122744935853 -80.8459999079343 0.99512274391786 -80.8459999079344 0.0986444297685449 -170.44938260604 
! Gamma         7.50755998702937E-24 4573.20199381118 0                4618.53980225962 
! Port Impedance         50               0                50               0                
5.5                            0.0987002395789723 -172.703245510614 0.995117211179166 -82.3385665745887 0.995117209894947 -82.3385665745887 0.0987002395789723 -171.973887638563 
! Gamma         1.07433511470026E-23 4657.89098287893 0                4704.06838303534 
! Port Impedance         50               0                50               0                
5.6                            0.0986731593815852 -174.164368640716 0.995119896608672 -83.8313260022352 0.995119895594928 -83.8313260022352 0.0986731593815852 -173.498283363754 
! Gamma         3.58477193276865E-23 4742.57997367059 0                4789.59696213748 
! Port Impedance         50               0                50               0                
5.7                            0.0985627848468039 -175.625985133185 0.995130834785314 -85.3243095433798 0.99513083388365 -85.3243095433798 0.0985627848468039 -175.022633953575 
! Gamma         4.67586276726083E-22 4827.26896237376 0                4875.12554409894 
! Port Impedance         50               0                50               0                
5.8                            0.0983683903067264 -177.088056527599 0.99515006915717 -86.8175487819302 0.995150068800384 -86.8175487819302 0.0983683903067262 -176.547041036262 
! Gamma         0                4911.95796124032 0                4960.65413779897 
! Port Impedance         50               0                50               0                
5.9                            0.0980902737686817 -178.550569539162 0.995177521082929 -88.3110755781653 0.995177520804809 -88.3110755781653 0.0980902737686818 -178.071581617169 
! Gamma         7.58796854680589E-23 4996.64696048828 0                5046.18272682455 
! Port Impedance         50               0                50               0                
6                              0.0977275692326443 179.986484034251 0.995213204605817 -89.8049217204907 0.995213204193944 -89.8049217204907 0.0977275692326442 -179.596327475232 
! Gamma         1.80893188358828E-23 5081.33596542732 0                5131.71132635781 
! Port Impedance         50               0                50               0                
6.1                            0.0972807138306558 178.52313344272  0.995256983366764 -91.2991191398544 0.995256983141984 -91.2991191398544 0.0972807138306556 178.878628277571 
! Gamma         7.33441195718264E-23 5166.02496694815 0                5217.23992640686 
! Port Impedance         50               0                50               0                
6.2                            0.0967490808433319 177.05940146635  0.99530880428542 -92.7936994490664 0.995308803750811 -92.7936994490664 0.0967490808433326 177.353199635517 
! Gamma         0                5250.71397577559 0                5302.76853231838 
! Port Impedance         50               0                50               0                
6.3                            0.0961326742653799 175.595298640185 0.995368529264965 -94.2886943242409 0.995368529151929 -94.2886943242409 0.09613267426538 175.827312711333 
! Gamma         1.34212992760019E-22 5335.40299429198 0                5388.29713915794 
! Port Impedance         50               0                50               0                
6.4                            0.0954315325792955 174.130864836181 0.995435996251939 -95.7841350730096 0.995435996207211 -95.7841350730096 0.0954315325792955 174.3008650178   
! Gamma         1.49339753931124E-20 5420.09201455783 0                5473.82575420065 
! Port Impedance         50               0                50               0                
6.5                            0.0946460600991437 172.666133915809 0.995510985935619 -97.280052348247 0.995510986125673 -97.280052348247 0.0946460600991427 172.773761387697 
! Gamma         0                5504.78102995456 0                5559.35436824371 
! Port Impedance         50               0                50               0                
6.6                            0.0937757352184435 171.201113840233 0.995593346515624 -98.7764769877179 0.995593346373056 -98.7764769877179 0.0937757352184442 171.245932184331 
! Gamma         0                5589.47005695042 0                5644.88298814797 
! Port Impedance         50               0                50               0                
6.7                            0.092820853112521 169.735838185411 0.995682825420033 -100.273438953733 0.995682825812773 -100.273438953733 0.0928208531125215 169.717283907123 
! Gamma         0                5674.159091037   0                5730.41161087499 
! Port Impedance         50               0                50               0                
6.8                            0.091781783340703 168.270395016949 0.995779143852309 -101.770967494618 0.995779144771753 -101.770967494618 0.0917817833407038 168.187669993815 
! Gamma         0                5758.84812185745 0                5815.9402416107  
! Port Impedance         50               0                50               0                
6.9                            0.090658600353056 166.804784034746 0.995882029800626 -103.269091388235 0.995882030706567 -103.269091388235 0.0906586003530566 166.657033188786 
! Gamma         0                5843.5371593353  0                5901.4688746057  
! Port Impedance         50               0                50               0                
7                              0.0894516143087788 165.33904218501  0.995991169154826 -104.767838705917 0.995991168816627 -104.767838705917 0.0894516143087793 165.125280403156 
! Gamma         0                5928.22620484921 0                5986.99750815618 
! Port Impedance         50               0                50               0                
7.1                            0.088161131544221 163.873300180912 0.996106226588471 -106.267236601361 0.996106226825916 -106.267236601361 0.0881611315442209 163.592226616367 
! Gamma         1.2689818931259E-21 6012.91524941724 0                6072.5261523548  
! Port Impedance         50               0                50               0                
7.2                            0.086787504573955 162.407566842148 0.996226846323578 -107.767311361105 0.996226846036499 -107.767311361105 0.0867875045739558 162.057810435643 
! Gamma         1.34610633348137E-23 6097.6043021116  0                6158.05479937966 
! Port Impedance         50               0                50               0                
7.3                            0.0853312933672606 160.9419601446   0.996352633624483 -109.26808823393 0.99635263346573 -109.26808823393 0.085331293367261 160.521863387541 
! Gamma         6.66731932524276E-22 6182.29335627174 0                6243.58345173737 
! Port Impedance         50               0                50               0                
7.4                            0.0837930470868322 159.476560175528 0.996483178500517 -110.769591200039 0.996483178726723 -110.769591200039 0.083793047086832 158.984257424394 
! Gamma         1.4369238809531E-23 6266.9824112774  0                6329.11210646032 
! Port Impedance         50               0                50               0                
7.5                            0.0821729714681299 158.011443328418 0.996618082529653 -112.271844040924 0.996618082865806 -112.271844040924 0.0821729714681307 157.444868589733 
! Gamma         9.80525511542764E-21 6351.67147798314 0                6414.64076828861 
! Port Impedance         50               0                50               0                
7.6                            0.0804720129118899 156.546767526943 0.996756868434562 -113.774868034287 0.996756868802189 -113.774868034287 0.0804720129118894 155.903496404484 
! Gamma         0                6436.36054530869 0                6500.16943263146 
! Port Impedance         50               0                50               0                
7.7                            0.0786906706099367 155.082681673589 0.996899080956195 -115.278684263628 0.996899081706172 -115.278684263628 0.0786906706099373 154.359949799155 
! Gamma         0                6521.04961674913 0                6585.6981033441  
! Port Impedance         50               0                50               0                
7.8                            0.0768296998962526 153.619345811138 0.997044228439052 -116.78331187776 0.997044232200397 -116.78331187776 0.0768296998962525 152.814030433343 
! Gamma         0                6605.73869239517 0                6671.22677907397 
! Port Impedance         50               0                50               0                
7.9                            0.0748898017619807 152.156908366581 0.997191814029244 -118.288769004795 0.99719181766457 -118.288769004795 0.0748898017619801 151.265553623831 
! Gamma         0                6690.42777586089 0                6756.75545808002 
! Port Impedance         50               0                50               0                
8                              0.0728718774506355 150.695702724612 0.997341308550393 -119.795072029476 0.99734131229616 -119.795072029476 0.0728718774506358 149.714153216436 
! Gamma         0                6775.11685957546 0                6842.28414542007 
! Port Impedance         50               0                50               0                
8.1                            0.0707767754613335 149.235843948871 0.997492178495734 -121.302236089817 0.997492180395629 -121.302236089818 0.0707767754613334 148.159683871495 
! Gamma         0                6859.80595295739 0                6927.81283289207 
! Port Impedance         50               0                50               0                
8.2                            0.0686053921894406 147.777748897635 0.997643873503612 -122.810274768729 0.99764387533116 -122.810274768729 0.068605392189441 146.601701564909 
! Gamma         0                6944.49505150203 0                7013.3415262203  
! Port Impedance         50               0                50               0                
8.3                            0.0663587166424169 146.321885525032 0.997795830216045 -124.319199948507 0.997795832149351 -124.319199948507 0.0663587166424167 145.039714577954 
! Gamma         0                7029.18415094092 0                7098.87023197478 
! Port Impedance         50               0                50               0                
8.4                            0.0640379094104949 144.868519252253 0.997947466086159 -125.829021509027 0.997947467178948 -125.829021509027 0.0640379094104955 143.473437729691 
! Gamma         0                7113.87325767617 0                7184.39893654925 
! Port Impedance         50               0                50               0                
8.5                            0.0616440223324379 143.418276675311 0.998098198620716 -127.339748218438 0.998098199042278 -127.339748218438 0.0616440223324386 141.902226887814 
! Gamma         0                7198.56236888541 0                7269.92764587559 
! Port Impedance         50               0                50               0                
8.6                            0.0591781707180189 141.971851779083 0.998247425670025 -128.851387244183 0.998247446960975 -128.851387244183 0.059178170718019 140.325373732551 
! Gamma         0                7283.25148410683 0                7355.45636410574 
! Port Impedance         50               0                50               0                
8.7                            0.056641669725942 140.529942145123 0.99839456142272 -130.363942943581 0.998394582428635 -130.363942943581 0.0566416697259421 138.742171967715 
! Gamma         0                7367.94060585238 0                7440.98508287171 
! Port Impedance         50               0                50               0                
8.8                            0.0540356160768888 139.093682702205 0.998539000383322 -131.877419408019 0.998539017316728 -131.877419408019 0.054035616076889 137.151478481757 
! Gamma         0                7452.62973387959 0                7526.51381379859 
! Port Impedance         50               0                50               0                
8.9                            0.0513615927260272 137.664174669055 0.998680113863758 -133.391817178978 0.998680130851896 -133.391817178978 0.0513615927260275 135.552190972988 
! Gamma         0                7537.31886590047 0                7612.0425448353  
! Port Impedance         50               0                50               0                
9                              0.0486208437598124 136.243113005337 0.998817298389478 -134.90713651437 0.998817316400809 -134.90713651437 0.0486208437598119 133.942613965922 
! Gamma         0                7622.00800277104 0                7697.57128531033 
! Port Impedance         50               0                50               0                
9.1                            0.0458148876316532 134.832346056078 0.998949938008071 -136.42337492931 0.998949955451357 -136.42337492931 0.0458148876316532 132.320904085301 
! Gamma         0                7706.69714674877 0                7783.10002841216 
! Port Impedance         50               0                50               0                
9.2                            0.042945204162859 133.434656263534 0.999077420094744 -137.940528438974 0.999077438207694 -137.940528438974 0.0429452041628599 130.684286858517 
! Gamma         0                7791.38629546299 0                7868.62878138277 
! Port Impedance         50               0                50               0                
9.3                            0.0400134762862135 132.053440320943 0.999199148208903 -139.458590221567 0.999199132130122 -139.458590221567 0.0400134762862139 129.029379235921 
! Gamma         0                7876.0754482043  0                7954.15753715436 
! Port Impedance         50               0                50               0                
9.4                            0.0370212949273222 130.693335100663 0.999314471766598 -140.977553274706 0.99931448201337 -140.977553274706 0.0370212949273219 127.351558349925 
! Gamma         0                7960.76460707272 0                8039.68629867038 
! Port Impedance         50               0                50               0                
9.5                            0.0339703779978361 129.361076290857 0.999422835233175 -142.497408563014 0.999422845072018 -142.497408563014 0.0339703779978364 125.644106583115 
! Gamma         0                8045.45377101179 0                8125.21506938841 
! Port Impedance         50               0                50               0                
9.6                            0.0308625835841657 128.065817284361 0.999523635289062 -144.018143714429 0.999523638723747 -144.018143714429 0.0308625835841659 123.89789528678  
! Gamma         0                8130.14294314165 0                8210.74384220959 
! Port Impedance         50               0                50               0                
9.7                            0.0276998030172079 126.821724748332 0.999616286135029 -145.539745467447 0.999616287541989 -145.539745467447 0.0276998030172082 122.098784316773 
! Gamma         0                8214.83212072918 0                8296.27262217587 
! Port Impedance         50               0                50               0                
9.8                            0.0244841386028556 125.650547128906 0.999700209510062 -147.062198230158 0.999700227577893 -147.062198230158 0.0244841386028566 120.22505641078  
! Gamma         0                8299.52130189056 0                8381.80140636094 
! Port Impedance         50               0                50               0                
9.9                            0.0212177885506234 124.588584128587 0.999774929777206 -148.585484685373 0.999774824991625 -148.585484685373 0.0212177885506227 118.240446500665 
! Gamma         0                8384.21048876141 0                8467.3302002932  
! Port Impedance         50               0                50               0                
10                             0.0179035733645619 123.699728767985 0.999839761979021 -150.109586516646 0.999839674391501 -150.109586516646 0.0179035733645609 116.081098198725 
! Gamma         0                8468.89968457832 0                8552.85900104296 
! Port Impedance         50               0                50               0                
10.1                           0.0145446924999749 123.107972738589 0.999894313627821 -151.634483397406 0.999894127102939 -151.634483397406 0.0145446924999749 113.623060466602 
! Gamma         0                8553.58888185709 0                8638.38780413115 
! Port Impedance         50               0                50               0                
10.2                           0.0111460283505853 123.091916518296 0.999937969855563 -153.160152482289 0.999937792337695 -153.160152482289 0.0111460283505842 110.587778517125 
! Gamma         0                8638.278090025   0                8723.91661540363 
! Port Impedance         50               0                50               0                
10.3                           0.0077183220584445 124.435039419798 0.99997032847222 -154.686573898756 0.999970098145148 -154.686573898756 0.00771832205844499 106.191812782686 
! Gamma         0                8722.9673037568  0                8809.44543663847 
! Port Impedance         50               0                50               0                
10.4                           0.00430017086542557 130.431834526557 0.99999100855044 -156.213719878865 0.999990499894668 -156.213719878865 0.00430017086542567 97.1407257157104 
! Gamma         0                8807.6565205654  0                8894.97426086671 
! Port Impedance         50               0                50               0                
10.5                           0.00136807481634454 177.20367837483  1.00000056834225 -157.741553453358 0.999997560030436 -157.741553453358 0.00136807481634542 47.3132147184432 
! Gamma         0                8892.34574646672 0                8980.50309197093 
! Port Impedance         50               0                50               0                
10.6                           0.00324631226720424 -91.8048622426843 0.999996381664548 -159.270066421577 0.999993079767078 -159.270066421577 0.00324631226720303 -46.7352706004938 
! Gamma         0                8977.03497789797 0                9066.03193033711 
! Port Impedance         50               0                50               0                
10.7                           0.00672782508739197 -81.474132245558 0.999978163664339 -160.799220953152 0.999976572193676 -160.799220953152 0.00672782508739257 -60.1243096607337 
! Gamma         0                9061.7242130372  0                9151.56077488509 
! Port Impedance         50               0                50               0                
10.8                           0.0103330529964006 -79.2588640426016 0.999946683653488 -162.328967258062 0.999946541512075 -162.328967258062 0.0103330529964004 -65.3990704735213 
! Gamma         0                9146.41345730503 0                9237.08962807979 
! Port Impedance         50               0                50               0                
10.9                           0.0139902800634645 -78.9700868479012 0.999902349605875 -163.859273419602 0.999901912879626 -163.859273419602 0.0139902800634647 -68.7484599913061 
! Gamma         0                9231.10270949445 0                9322.61848528463 
! Port Impedance         50               0                50               0                
11                             0.0176829506354264 -79.4268446198524 0.999844621178288 -165.390175205722 0.999842667632419 -165.390175205722 0.0176829506354264 -71.3535057915907 
! Gamma         0                9315.79196763376 0                9408.14735196608 
! Port Impedance         50               0                50               0                
11.1                           0.0214064991866649 -80.2398868822614 0.999770162393251 -166.921514948404 0.999771546892204 -166.921514948404 0.0214064991866657 -73.6031430145466 
! Gamma         0                9400.48123087093 0                9493.67622434153 
! Port Impedance         50               0                50               0                
11.2                           0.025155291074763 -81.2687630336905 0.999685089431461 -168.453374759292 0.999682021764776 -168.453374759292 0.0251552910747637 -75.637986484893 
! Gamma         0                9485.17049972554 0                9579.20510306428 
! Port Impedance         50               0                50               0                
11.3                           0.0289279782368819 -82.4370460678422 0.999592292797787 -169.985619654378 0.99957070425037 -169.985619654378 0.0289279782368814 -77.5341932409138 
! Gamma         0                9569.85977585472 0                9664.73398969537 
! Port Impedance         50               0                50               0                
11.4                           0.0327162030398768 -83.654901541437 0.99946700183349 -171.518421051781 0.999462361664918 -171.518421051781 0.0327162030398768 -79.3819405621261 
! Gamma         0                9654.54905872678 0                9750.26288298996 
! Port Impedance         50               0                50               0                
11.5                           0.0365263052528484 -84.95535540927  0.999340075199397 -173.051347474702 0.999325308579577 -173.051347474702 0.0365263052528484 -81.1473395401326 
! Gamma         0                9739.23835181036 0                9835.79178378219 
! Port Impedance         50               0                50               0                
11.6                           0.0403460546791079 -86.2655460701389 0.99917568675453 -174.584757323   0.999195846242706 -174.584757323   0.0403460546791079 -82.9039685758616 
! Gamma         0                9823.92765121049 0                9921.32069297835 
! Port Impedance         50               0                50               0                
11.7                           0.0441808461771233 -87.6481004222852 0.999023997962486 -176.118365701336 0.999023101413577 -176.118365701336 0.0441808461771234 -84.5886309803856 
! Gamma         0                9908.61695290083 0                10006.8496101403 
! Port Impedance         50               0                50               0                
11.8                           0.0480231203452425 -89.0391602164528 0.998845824490869 -177.652254437875 0.998846624223363 -177.652254437875 0.0480231203452425 -86.2653486592969 
! Gamma         0                9993.30626449771 0                10092.3785326854 
! Port Impedance         50               0                50               0                
11.9                           0.0518717951540808 -90.4507875531286 0.998653662114497 -179.186331639709 0.998653842369979 -179.186331639709 0.0518717951540808 -87.9218757262888 
! Gamma         0                10077.9955846581 0                10177.9074651236 
! Port Impedance         50               0                50               0                
12                             0.0557243593343722 -91.881207365645 0.998449902980225 179.279412126026 0.998442478487094 179.279412126026 0.0557243593343722 -89.5599683823032 
! Gamma         0                10162.6849119714 0                10263.4364016101 
! Port Impedance         50               0                50               0                
12.1                           0.0595775652358358 -93.2943927516608 0.998201076989003 177.745217013618 0.998246281927772 177.745217013618 0.0595775652358362 -91.2151732211039 
! Gamma         0                10247.3742433183 0                10348.9653497886 
! Port Impedance         50               0                50               0                
12.2                           0.0634395152491594 -94.893954378542 0.998127611476135 176.210179272231 0.997843779145634 176.210179272231 0.0634395152491592 -92.6856870769959 
! Gamma         0                10332.0635819153 0                10434.4943016375 
! Port Impedance         50               0                50               0                
12.3                           0.0672792782427814 -96.2452392592368 0.997760198777549 174.676010569738 0.997708166690534 174.676010569738 0.0672792782427806 -94.402739601288 
! Gamma         0                10416.7529295665 0                10520.0232624248 
! Port Impedance         50               0                50               0                
12.4                           0.0711197193484525 -97.6916664547427 0.997472874605887 173.141618361901 0.997462698835706 173.141618361901 0.071119719348452 -96.0250968214553 
! Gamma         0                10501.4422859457 0                10605.552235182  
! Port Impedance         50               0                50               0                
12.5                           0.0749523522861705 -99.1588683403546 0.997188125502879 171.6071500519   0.997186107070124 171.6071500519   0.0749523522861699 -97.6268315558449 
! Gamma         0                10586.1316478949 0                10691.081210463  
! Port Impedance         50               0                50               0                
12.6                           0.0787734308286861 -100.634351333215 0.99689345421277 170.07274730279  0.996891636107954 170.07274730279  0.0787734308286866 -99.2201540612047 
! Gamma         0                10670.8210183969 0                10776.610196761  
! Port Impedance         50               0                50               0                
12.7                           0.082580023870866 -102.113906119934 0.996584896624819 168.538467313304 0.996583976960857 168.538467313304 0.082580023870866 -100.809159253459 
! Gamma         0                10755.5103958038 0                10862.1391890808 
! Port Impedance         50               0                50               0                
12.8                           0.0863697203012975 -103.597101676716 0.996263017902783 167.004343502172 0.996263289492022 167.004343502172 0.0863697203012972 -102.39421131894 
! Gamma         0                10840.1997791772 0                10947.6681910272 
! Port Impedance         50               0                50               0                
12.9                           0.0901401504600566 -105.083881165194 0.995928969835732 165.470400516371 0.995929211135044 165.470400516371 0.0901401504600567 -103.975317802063 
! Gamma         0                10924.8891746698 0                11033.1972016733 
! Port Impedance         50               0                50               0                
13                             0.0938888970373582 -106.573392910325 0.995582587039398 163.936670283014 0.995582775267928 163.936670283014 0.0938888970373589 -105.553266523646 
! Gamma         0                11009.5785757078 0                11118.726217668  
! Port Impedance         50               0                50               0                
13.1                           0.0976133747287856 -108.065291696638 0.995224342347592 162.403192543269 0.995224480480127 162.403192543269 0.0976133747287858 -107.128323216825 
! Gamma         0                11094.2679822006 0                11204.2552433967 
! Port Impedance         50               0                50               0                
13.2                           0.101311095219745 -109.559222177967 0.994854792698131 160.870000326842 0.99485479614681 160.870000326842 0.101311095219745 -108.70077716835 
! Gamma         0                11178.957399114  0                11289.784277779  
! Port Impedance         50               0                50               0                
13.3                           0.104979651749164 -111.054881728465 0.994474371906298 159.337124928254 0.994474368226161 159.337124928254 0.104979651749164 -110.270868415026 
! Gamma         0                11263.6468233704 0                11375.3133220982 
! Port Impedance         50               0                50               0                
13.4                           0.108616823640322 -112.552201622786 0.994083765845896 157.804592660155 0.994083617069629 157.804592660155 0.108616823640323 -111.838613056904 
! Gamma         0                11348.3362555111 0                11460.8423692066 
! Port Impedance         50               0                50               0                
13.5                           0.112220097610567 -114.050950703617 0.993683443852705 156.272435266068 0.993683306087808 156.272435266068 0.112220097610568 -113.404178764247 
! Gamma         0                11433.0256964815 0                11546.3714320463 
! Port Impedance         50               0                50               0                
13.6                           0.115787114369463 -115.550758467783 0.99327411227034 154.740679439044 0.99327399351114 154.740679439044 0.115787114369462 -114.967882654128 
! Gamma         0                11517.7151437248 0                11631.9005002877 
! Port Impedance         50               0                50               0                
13.7                           0.119315506921246 -117.051460937668 0.992856450194755 153.209350936632 0.992856328439789 153.209350936632 0.119315506921245 -116.529837189068 
! Gamma         0                11602.4046015831 0                11717.4295776111 
! Port Impedance         50               0                50               0                
13.8                           0.122803017401305 -118.552917773865 0.992431120500098 151.678473071503 0.992431009641074 151.678473071503 0.122803017401305 -118.090136083129 
! Gamma         0                11687.0940666705 0                11802.9586627692 
! Port Impedance         50               0                50               0                
13.9                           0.126247436856784 -120.054985491352 0.991998799319002 150.148065566097 0.991998765888266 150.148065566097 0.126247436856784 -119.648883376454 
! Gamma         0                11771.7835398211 0                11888.4877555352 
! Port Impedance         50               0                50               0                
14                             0.129646437222718 -121.557576730009 0.991560299032103 148.61815228976  0.991560273515574 148.61815228976  0.129646437222717 -121.206118690471 
! Gamma         0                11856.4730213998 0                11974.0168592417 
! Port Impedance         50               0                50               0                
