! Touchstone file exported from HFSS 2026.1.0
!        Generated:      01:55:58 PM Aug 24, 2026
!        Design:         HFSSDesign_Supercell_15_4_15_stub_length
!        Project:        15-4-15_super_cell_cascade_validation
!        Setup:          Setup1
!        Solution:       Sweep_15_4_15_fine
!
! Variables:
!        stub_length = 8.34um
!
# GHz S MA R 50.000000
! Terminal data exported
! Port[1] = Port1
! Port[2] = Port2
3                              0.0768495016134826 52.2530814506797 0.997042702256637 -38.4159586489058 0.997042706246979 -38.4159586489058 0.0768495016134824 50.9150012515081
! Gamma         0                2632.5463282991  0                2635.08282149548
! Port Impedance         50               0                50               0
3.1                            0.0790854441759601 50.9119167269543 0.996867839025798 -39.6926149118299 0.996867843074003 -39.6926149118299 0.0790854441759603 49.7028534493849
! Gamma         4.58303219617589E-21 2720.29789539311 0                2722.91893902564
! Port Impedance         50               0                50               0
3.2                            0.0812911784628514 49.5735389726964 0.99669039329797 -40.9689418296343 0.996690397523614 -40.9689418296343 0.0812911784628519 48.4885773680346
! Gamma         7.20771421733745E-21 2808.04946985203 0                2810.75505934523
! Port Impedance         50               0                50               0
3.3                            0.0834656763037286 48.2379765934132 0.996510650568737 -42.2449349579881 0.996510654765614 -42.244934957988 0.0834656763037287 47.27215349061
! Gamma         1.56016737480578E-20 2895.80104435172 0                2898.59118451416
! Port Impedance         50               0                50               0
3.4                            0.0856082801966914 46.9048497020419 0.996328870455476 -43.5205923349328 0.996328874729849 -43.5205923349327 0.0856082801966912 46.0539656280929
! Gamma         1.21493706541317E-20 2983.55261976133 0                2986.4273119676
! Port Impedance         50               0                50               0
3.5                            0.0877182430588616 45.5739008535147 0.996145323113803 -44.7959120902576 0.996145328206598 -44.7959120902576 0.0877182430588616 44.8342749659707
! Gamma         5.23677018571099E-21 3071.30420079223 0                3074.26344091304
! Port Impedance         50               0                50               0
3.6                            0.0897949055714733 44.2450267121958 0.995960275310767 -46.0708933575775 0.995960280267102 -46.0708933575775 0.0897949055714722 43.6131865726496
! Gamma         2.22849358682914E-21 3159.05578367434 0                3162.09957286428
! Port Impedance         50               0                50               0
3.7                            0.0918375111703352 42.9181342199393 0.995774003698642 -47.3455352177246 0.995774008820302 -47.3455352177245 0.0918375111703367 42.3907953446116
! Gamma         3.05373489623309E-21 3246.80736844827 0                3249.93570803256
! Port Impedance         50               0                50               0
3.8                            0.0938454167471166 41.5930118813731 0.995586777914816 -48.6198378222617 0.995586783335494 -48.6198378222618 0.0938454167471164 41.1673124741032
! Gamma         2.4055869137912E-21 3334.55895631512 0                3337.77184556858
! Port Impedance         50               0                50               0
3.9                            0.0958180625431861 40.2695254078366 0.995398861575851 -49.8938024311667 0.995398866864154 -49.8938024311666 0.0958180625431855 39.9428697298304
! Gamma         1.09198948663468E-20 3422.31054832772 0                3425.60798606422
! Port Impedance         50               0                50               0
4                              0.0977547508911712 38.9477267015831 0.995210532042221 -51.1674298445111 0.99521053765957 -51.1674298445111 0.0977547508911706 38.7174136093949
! Gamma         0                3510.06214069464 0                3513.44413264016
! Port Impedance         50               0                50               0
4.1                            0.0996548404410468 37.6272541455218 0.995022058307924 -52.4407220546729 0.995022074646588 -52.4407220546729 0.0996548404410466 37.491301745132
! Gamma         1.78539335759948E-22 3597.8137384351  0                3601.28027850091
! Port Impedance         50               0                50               0
4.2                            0.1015179227369  36.3081543040225 0.994833702242336 -53.7136822673338 0.994833718572695 -53.7136822673338 0.1015179227369  36.2644811613095
! Gamma         0                3685.56534124835 0                3689.11642934531
! Port Impedance         50               0                50               0
4.3                            0.103343234426476 34.990360843217  0.99464574581351 -54.9863129314237 0.994645762134257 -54.9863129314237 0.103343234426476 35.0370132939355
! Gamma         3.5405024780314E-21 3773.31694345515 0                3776.95258332638
! Port Impedance         50               0                50               0
4.4                            0.105130367887066 33.6737704132908 0.994458440342811 -56.2586183199972 0.994458456611842 -56.2586183199972 0.105130367887065 33.8089929467152
! Gamma         1.24344127313234E-21 3861.06855040441 0                3864.78874105765
! Port Impedance         50               0                50               0
4.5                            0.106878815944859 32.3582612737618 0.994272046722579 -57.5306028273281 0.994272062621969 -57.5306028273281 0.10687881594486 32.5805330715823
! Gamma         0                3948.82016263226 0                3952.62490159908
! Port Impedance         50               0                50               0
4.6                            0.108588011140092 31.0438425800783 0.994086831219594 -58.8022712116131 0.994086847146196 -58.8022712116132 0.108588011140091 31.3516149966951
! Gamma         2.41949815825049E-21 4036.5717767407  0                4040.4610667263
! Port Impedance         50               0                50               0
4.7                            0.110257543205722 29.7303778681431 0.99390304272566 -60.0736292284016 0.993903058649662 -60.0736292284016 0.110257543205722 30.1223636750536
! Gamma         8.19889597095142E-23 4124.3233969852  0                4128.29723442906
! Port Impedance         50               0                50               0
4.8                            0.111886796283204 28.4179019534293 0.993720951175918 -61.3446824250765 0.9937209672886  -61.3446824250764 0.111886796283204 28.8927331964181
! Gamma         1.13574839587606E-21 4212.07501599803 0                4216.13340666708
! Port Impedance         50               0                50               0
4.9                            0.113475713146377 27.1062299674557 0.993540762515872 -62.6154388039264 0.993540778363537 -62.6154388039264 0.113475713146377 27.6628924246917
! Gamma         0                4299.82664583471 0                4303.9695824169
! Port Impedance         50               0                50               0
5                              0.115023490183956 25.7954347046161 0.993362764000156 -63.885904240076 0.993362779909624 -63.885904240076 0.115023490183957 26.4327568152323
! Gamma         0                4387.57827464346 0                4391.80576306687
! Port Impedance         50               0                50               0
5.1                            0.116530013012383 24.4853731533674 0.993187162724423 -65.1560872903795 0.993187178700006 -65.1560872903795 0.116530013012383 25.2024522658738
! Gamma         7.14878055360965E-24 4475.32991005072 0                4479.64194684168
! Port Impedance         50               0                50               0
5.2                            0.117994658850994 23.1760529497924 0.993014221846124 -66.4259955314349 0.993014237650505 -66.4259955314348 0.117994658850994 23.971955987338
! Gamma         0                4563.08154668129 0                4567.47813385909
! Port Impedance         50               0                50               0
5.3                            0.119417302183448 21.8674158015916 0.992844148881227 -67.6956381786805 0.99284415288139 -67.6956381786806 0.119417302183449 22.7413078410475
! Gamma         1.25654147167353E-20 4650.83318795716 0                4655.31432626938
! Port Impedance         50               0                50               0
5.4                            0.120797486079166 20.5593660603604 0.992677169731727 -68.9650245518911 0.992677173811967 -68.9650245518911 0.120797486079166 21.5105848358573
! Gamma         0                4738.58483653391 0                4743.15052231366
! Port Impedance         50               0                50               0
5.5                            0.12213475722224 19.2519237480764 0.992513522710154 -70.2341637637388 0.992513531088624 -70.2341637637387 0.122134757222239 20.2797487244459
! Gamma         5.5740929135819E-21 4826.336483754   0                4830.98672273348
! Port Impedance         50               0                50               0
5.6                            0.123429190402263 17.9450172173024 0.99235337791473 -71.503066982796 0.992353386276536 -71.503066982796 0.123429190402262 19.0488488171054
! Gamma         0                4914.08813939781 0                4918.82292760089
! Port Impedance         50               0                50               0
5.7                            0.124680375238965 16.6386245837836 0.992196954287924 -72.7717445786456 0.992196962282343 -72.7717445786457 0.124680375238965 17.8178862589252
! Gamma         0                5001.83979969933 0                5006.65913657281
! Port Impedance         50               0                50               0
5.8                            0.125888109588341 15.3327206376067 0.992044442532452 -74.0402075732853 0.992044450500592 -74.0402075732853 0.125888109588341 16.5868642158222
! Gamma         1.28935121814907E-20 5089.59146328515 0                5094.49535122631
! Port Impedance         50               0                50               0
5.9                            0.127052230760987 14.0272428046127 0.9918960243332  -75.3084674709686 0.991896031965702 -75.3084674709686 0.127052230760987 15.3558222534501
! Gamma         0                5177.34313330117 0                5182.33156938854
! Port Impedance         50               0                50               0
6                              0.128172422460867 12.7221801687606 0.991751895574606 -76.576536005783 0.991751903383705 -76.5765360057829 0.128172422460867 14.1247478196735
! Gamma         0                5265.09480519749 0                5270.16779233745
! Port Impedance         50               0                50               0
6.1                            0.12924865404091 11.4174877264863 0.991612211629   -77.8444256178552 0.991612218866563 -77.8444256178552 0.12924865404091 12.8936610378032
! Gamma         8.89329193986975E-21 5352.8464838748  0                5358.00402103228
! Port Impedance         50               0                50               0
6.2                            0.130280757600204 10.1131239803361 0.991477139086269 -79.1121488362021 0.991477146013734 -79.1121488362021 0.130280757600205 11.6625783472598
! Gamma         0                5440.59816811303 0                5445.84025367983
! Port Impedance         50               0                50               0
6.3                            0.131268542372368 8.80906942905574 0.991346842745628 -80.3797184092696 0.991346849969849 -80.3797184092696 0.131268542372369 10.4314937524051
! Gamma         0                5528.34985574041 0                5533.67649162418
! Port Impedance         50               0                50               0
6.4                            0.132211918046891 7.50528569006292 0.991221469558906 -81.6471476061759 0.99122147663285 -81.6471476061759 0.13221191804689 9.20041909758528
! Gamma         0                5616.10154859806 0                5621.51273430552
! Port Impedance         50               0                50               0
6.5                            0.133110831408922 6.20174163477331 0.991101155136654 -82.9144499428751 0.991101162046559 -82.9144499428751 0.133110831408922 7.96935847947663
! Gamma         0                5703.8532456803  0                5709.34898245849
! Port Impedance         50               0                50               0
6.6                            0.133965261291624 4.89840344897321 0.990986025209896 -84.1816391059517 0.99098603187574 -84.1816391059517 0.133965261291623 6.73831833912335
! Gamma         6.0194503191313E-21 5791.60495025901 0                5797.18523548787
! Port Impedance         50               0                50               0
6.7                            0.134775108296878 3.59524387946731 0.990876210207708 -85.4487292034177 0.990876216493028 -85.4487292034177 0.134775108296879 5.50729771369723
! Gamma         0                5879.35665858017 0                5885.02149422063
! Port Impedance         50               0                50               0
6.8                            0.135540347503587 2.29223067549452 0.990771824621297 -86.7157342512319 0.990771830409907 -86.7157342512319 0.135540347503587 4.27630082204164
! Gamma         0                5967.10837194355 0                5972.85775710717
! Port Impedance         50               0                50               0
6.9                            0.13626112349884 0.989335647994918 0.990672953483793 -87.9826688641563 0.990672958993717 -87.9826688641563 0.136261123498839 3.04532662369246
! Gamma         0                6054.86009374319 0                6060.69402673924
! Port Impedance         50               0                50               0
7                              0.136937216011344 -0.313470348164084 0.990579726007951 -89.2495474498864 0.990579731351362 -89.2495474498864 0.136937216011343 1.81437544839125
! Gamma         3.88072472879921E-22 6142.61181628226 0                6148.53030143712
! Port Impedance         50               0                50               0
7.1                            0.137568863662946 -1.61621698913982 0.990492202353063 -90.516384826659 0.990492207227676 -90.516384826659 0.137568863662945 0.583447335821881
! Gamma         0                6230.36354701046 0                6236.36658117598
! Port Impedance         50               0                50               0
7.2                            0.138156084640165 -2.91893253277329 0.990410466269283 -91.7831959158327 0.990410470894802 -91.7831959158327 0.138156084640165 -0.647459298892091
! Gamma         1.33569597153268E-20 6318.11528291173 0                6324.20286755695
! Port Impedance         50               0                50               0
7.3                            0.138698991986574 -4.22164099422545 0.990334581337834 -93.049995471853 0.990334588030851 -93.049995471853 0.138698991986573 -1.87834994948061
! Gamma         8.43812414156837E-20 6405.86702514357 0                6412.03915946562
! Port Impedance         50               0                50               0
7.4                            0.139197609513285 -5.52437820462426 0.990264620832045 -94.316798888644 0.990264627127487 -94.316798888644 0.139197609513286 -3.10921957266366
! Gamma         1.66469298601375E-20 6493.61877201811 0                6499.87545750953
! Port Impedance         50               0                50               0
7.5                            0.13965212250246 -6.82716639743408 0.990200625324915 -95.5836211295025 0.990200631673836 -95.5836211295025 0.139652122502459 -4.34007586157091
! Gamma         0                6581.37052477068 0                6587.71176062771
! Port Impedance         50               0                50               0
7.6                            0.140062694361313 -8.13003081707707 0.990142634066834 -96.8504773496284 0.990142639976529 -96.8504773496284 0.140062694361312 -5.57092388217982
! Gamma         1.19414362960061E-23 6669.12228391473 0                6675.5480696778
! Port Impedance         50               0                50               0
7.7                            0.140429522791517 -9.43299866817734 0.990090674285973 -98.117382749286 0.990090680164722 -98.117382749286 0.140429522791517 -6.80176683039478
! Gamma         4.36740357754857E-20 6756.87405073693 0                6763.38438553013
! Port Impedance         50               0                50               0
7.8                            0.14075269692123 -10.7361002215119 0.990044783209597 -99.384352677846 0.990044788814256 -99.384352677846 0.140752696921231 -8.03260513418009
! Gamma         1.46947914696879E-20 6844.62582143447 0                6851.22070707589
! Port Impedance         50               0                50               0
7.9                            0.141032494790484 -12.0393549319837 0.990004964717971 -100.651402112861 0.990004970017884 -100.651402112861 0.141032494790484 -9.26344929373746
! Gamma         5.95327796575122E-20 6932.37759907662 0                6939.05703412053
! Port Impedance         50               0                50               0
8                              0.141269145065191 -13.3427883614646 0.989971224521608 -101.918545935297 0.989971227826489 -101.918545935297 0.14126914506519 -10.4943035091302
! Gamma         0                7020.12938352513 0                7026.89336795791
! Port Impedance         50               0                50               0
8.1                            0.141462923594924 -14.6464311549012 0.989943553008299 -103.185799898802 0.989943556145126 -103.185799898802 0.141462923594924 -11.7251686427015
! Gamma         3.36122856640908E-20 7107.8811743298  0                7114.72970923523
! Port Impedance         50               0                50               0
8.2                            0.14161408130418 -15.9503025040518 0.989921940841672 -104.453178597195 0.989921943889014 -104.453178597195 0.141614081304181 -12.9560546903387
! Gamma         1.49826644238539E-20 7195.63297201869 0                7202.56605653489
! Port Impedance         50               0                50               0
8.3                            0.141722834828671 -17.2544340091388 0.989906376286131 -105.720697210917 0.989906380605919 -105.720697210917 0.141722834828671 -14.1869604126958
! Gamma         4.23608893855217E-20 7283.38477428804 0                7290.40240994236
! Port Impedance         50               0                50               0
8.4                            0.141789574528988 -18.5588383754069 0.989896819023471 -106.988370133604 0.989896823308869 -106.988370133604 0.141789574528989 -15.4179018918016
! Gamma         1.89971010846962E-20 7371.13658428996 0                7378.23876959978
! Port Impedance         50               0                50               0
8.5                            0.141814629130435 -19.8635487698802 0.989893222049804 -108.256211716466 0.989893242157483 -108.256211716466 0.141814629130435 -16.648874663053
! Gamma         1.35452705804922E-19 7458.88840093326 0                7466.07513696203
! Port Impedance         50               0                50               0
8.6                            0.141798350026216 -21.1685761927322 0.989895554481417 -109.524237171013 0.989895573824641 -109.524237171013 0.141798350026216 -17.8798981492941
! Gamma         0                7546.64022548385 0                7553.91151056202
! Port Impedance         50               0                50               0
8.7                            0.14174106179616 -22.4739533755461 0.989903759449469 -110.792460562025 0.989903778066132 -110.792460562026 0.14174106179616 -19.1109677485046
! Gamma         2.29566478226742E-19 7634.39205588133 0                7641.74789105436
! Port Impedance         50               0                50               0
8.8                            0.141643175912444 -23.779699176708 0.989917776311731 -112.060896061727 0.989917783241068 -112.060896061727 0.141643175912444 -20.3420929467464
! Gamma         0                7722.1438927734  0                7729.58427838277
! Port Impedance         50               0                50               0
8.9                            0.141504827961343 -25.0858873784728 0.98993756221125 -113.329558179252 0.989937568865081 -113.329558179252 0.141504827961344 -21.5732289800316
! Gamma         2.6529590659191E-20 7809.89573696233 0                7817.4206727502
! Port Impedance         50               0                50               0
9                              0.141326588833393 -26.3925221188982 0.989963019036523 -114.598460277282 0.989963035429872 -114.598460277282 0.141326588833393 -22.8043984356664
! Gamma         2.26218501651567E-20 7897.64758873705 0                7905.25707474606
! Port Impedance         50               0                50               0
9.1                            0.141109020017494 -27.6995896184605 0.989994044314079 -115.867615563099 0.989994081377289 -115.867615563099 0.141109020017494 -24.0356415077378
! Gamma         0                7985.39944777097 0                7993.09348300261
! Port Impedance         50               0                50               0
9.2                            0.140852574017826 -29.0071310006523 0.990030563282158 -117.137036980473 0.990030599806047 -117.137036980473 0.140852574017826 -25.2669429602941
! Gamma         0                8073.15131157134 0                8080.92989889075
! Port Impedance         50               0                50               0
9.3                            0.140557818927271 -30.3151339617366 0.990072453745782 -118.406737106435 0.99007248997769 -118.406737106435 0.140557818927272 -26.4983402511342
! Gamma         0                8160.90318684853 0                8168.76632206339
! Port Impedance         50               0                50               0
9.4                            0.140225139936854 -31.6236462368692 0.990119626800065 -119.676728949614 0.990119661901873 -119.676728949614 0.140225139936854 -27.7298116623583
! Gamma         0                8248.65506644222 0                8256.60275229037
! Port Impedance         50               0                50               0
9.5                            0.139855147538298 -32.932671747896 0.990171956491296 -120.947024336766 0.990171991116839 -120.947024336766 0.139855147538298 -28.9613769256356
! Gamma         0                8336.40695504016 0                8344.43919078119
! Port Impedance         50               0                50               0
9.6                            0.139448335809758 -34.2422306687461 0.99022933109748 -122.21763540692 0.990229364901898 -122.21763540692 0.139448335809758 -30.1930401450935
! Gamma         0                8424.15885093103 0                8432.27563672099
! Port Impedance         50               0                50               0
9.7                            0.139005250463188 -35.5523472482995 0.990291627764794 -123.488573761265 0.990291660404291 -123.488573761265 0.139005250463188 -31.4248002742313
! Gamma         0                8511.9107533461  0                8520.11209055728
! Port Impedance         50               0                50               0
9.8                            0.138526491582606 -36.8630206705796 0.990358712568788 -124.759850543221 0.990358744445024 -124.759850543221 0.138526491582606 -32.6566804158621
! Gamma         0                8599.66266456627 0                8607.94855149627
! Port Impedance         50               0                50               0
9.9                            0.13801264297427 -38.1742784525801 0.990430451879192 -126.031476587027 0.99043048254226 -126.031476587027 0.13801264297427 -33.8886747214737
! Gamma         0                8687.41458375759 0                8695.78502073032
! Port Impedance         50               0                50               0
10                             0.13746431163238 -39.4861276409713 0.990506705491435 -127.303462428054 0.99050673517719 -127.303462428054 0.137464311632379 -35.1207972151367
! Gamma         0                8775.16651161927 0                8783.62149755267
! Port Impedance         50               0                50               0
10.1                           0.136882050711296 -40.7985876620728 0.990587339069247 -128.575818703399 0.990587367202838 -128.575818703399 0.136882050711297 -36.3530497447256
! Gamma         0                8862.91844547017 0                8871.45798213166
! Port Impedance         50               0                50               0
10.2                           0.136266344636526 -42.1115879088714 0.990672219893806 -129.848555357108 0.990672256283318 -129.848555357108 0.136266344636526 -37.585522805344
! Gamma         0                8950.67038789588 0                8959.29447492285
! Port Impedance         50               0                50               0
10.3                           0.135618107977425 -43.4252178122054 0.990761168206413 -131.121681734277 0.990761204908384 -131.121681734277 0.135618107977425 -38.8181456563478
! Gamma         0                9038.42233989001 0                9047.13097614434
! Port Impedance         50               0                50               0
10.4                           0.134937980435307 -44.7394938892635 0.99085402836112 -132.395206279297 0.990854064609226 -132.395206279297 0.134937980435307 -40.0509186693312
! Gamma         0                9126.17429897357 0                9134.9674855969
! Port Impedance         50               0                50               0
10.5                           0.134226623665945 -46.0544099966541 0.990950602801531 -133.669138189595 0.990950720170169 -133.669138189595 0.134226623665946 -41.2838663825355
! Gamma         0                9213.92626551969 0                9222.80400300212
! Port Impedance         50               0                50               0
10.6                           0.13348463934669 -47.3700867963793 0.991050821751407 -134.943485870385 0.991050942597223 -134.943485870385 0.13348463934669 -42.5168849443911
! Gamma         0                9301.67824036853 0                9310.64052902558
! Port Impedance         50               0                50               0
10.7                           0.132712804682311 -48.6864960596732 0.991154472717841 -136.218257066567 0.991154596497512 -136.218257066567 0.132712804682311 -43.7500180734609
! Gamma         7.41229945591904E-21 9389.43022537259 0                9398.47706389458
! Port Impedance         50               0                50               0
10.8                           0.131911946581477 -50.0035901097941 0.991261373928526 -137.493458331921 0.991261501953707 -137.493458331921 0.131911946581477 -44.9833265540473
! Gamma         2.12181734839893E-20 9477.18221832442 0                9486.31360638003
! Port Impedance         50               0                50               0
10.9                           0.131082836892302 -51.321388366036 0.99137135262008 -138.769096508564 0.991371484837437 -138.769096508564 0.131082836892303 -46.2168046510924
! Gamma         3.05417297166856E-22 9564.93421880826 0                9574.15015815353
! Port Impedance         50               0                50               0
11                             0.130226257402426 -52.6398807697504 0.99148423365632 -140.045177840337 0.991484371120832 -140.045177840337 0.130226257402427 -47.4504749109236
! Gamma         0                9652.68622915232 0                9661.98671864737
! Port Impedance         50               0                50               0
11.1                           0.129342993100467 -53.9590689308556 0.991599842249065 -141.321708396103 0.991599986447801 -141.321708396103 0.129342993100467 -48.6843478613503
! Gamma         0                9740.43824894378 0                9749.82328764636
! Port Impedance         50               0                50               0
11.2                           0.128433832233909 -55.2789958342895 0.991718047713823 -142.598693616424 0.991718112829503 -142.598693616424 0.128433832233908 -49.9183913985586
! Gamma         4.14537712557472E-21 9828.19027534552 0                9837.65986534877
! Port Impedance         50               0                50               0
11.3                           0.127499591909226 -56.5996066835775 0.991838589622759 -143.876139164246 0.991838656365592 -143.876139164246 0.127499591909227 -51.1526716449159
! Gamma         0                9915.94231255581 0                9925.49645225322
! Port Impedance         50               0                50               0
11.4                           0.126541085970891 -57.9209180213047 0.991961303152864 -145.154050953773 0.991961430787459 -145.154050953772 0.126541085970891 -52.3871838862403
! Gamma         0                10003.6943578978 0                10013.3330481346
! Port Impedance         50               0                50               0
11.5                           0.125559177650389 -59.2429506972698 0.992086058657929 -146.432430753682 0.99208620493993 -146.432430753682 0.125559177650389 -53.6219108100939
! Gamma         1.36443241623035E-22 10091.4464123777 0                10101.1696534425
! Port Impedance         50               0                50               0
11.6                           0.12455470798589 -60.5656832169902 0.992212656065604 -147.711283791029 0.992212827260547 -147.711283791029 0.12455470798589 -54.8568843650679
! Gamma         1.09086014479511E-21 10179.198476165  0                10189.0062670894
! Port Impedance         50               0                50               0
11.7                           0.123528553478907 -61.8891191117708 0.99234091513179 -148.990613462994 0.992341121341982 -148.990613462994 0.123528553478906 -56.0921078142168
! Gamma         1.83454165943183E-21 10266.9505495883 0                10276.8428903188
! Port Impedance         50               0                50               0
11.8                           0.122481554706827 -63.2132923546321 0.992470748724122 -150.270423570808 0.992470831027382 -150.270423570808 0.122481554706827 -57.3275547869842
! Gamma         7.52989942741215E-21 10354.7026320375 0                10364.6795234277
! Port Impedance         50               0                50               0
11.9                           0.121414668472061 -64.5381211966728 0.992601808950206 -151.550715779564 0.992601937046483 -151.550715779564 0.12141466847206 -58.5633103624547
! Gamma         1.16131659092705E-20 10442.454723543  0                10452.5161655471
! Port Impedance         50               0                50               0
12                             0.120328758693086 -65.8636298629876 0.99273399957349 -152.831493078734 0.992734196929683 -152.831493078734 0.120328758693086 -59.7993562944806
! Gamma         3.71761158900829E-22 10530.2068240987 0                10540.3528168089
! Port Impedance         50               0                50               0
12.1                           0.119224754754459 -67.1897960237138 0.992867142859633 -154.112757172363 0.992867439458721 -154.112757172363 0.119224754754458 -61.0357183210132
! Gamma         5.07897071165192E-22 10617.9589352718 0                10628.1894779398
! Port Impedance         50               0                50               0
12.2                           0.118103567064662 -68.5166180781382 0.993001058656387 -155.394510010752 0.99300150674644 -155.394510010752 0.118103567064662 -62.2724019433657
! Gamma         7.23683164841919E-21 10705.7110556505 0                10716.0261487419
! Port Impedance         50               0                50               0
12.3                           0.116966136862652 -69.8440727627907 0.993135569153351 -156.676752629625 0.993136237853473 -156.676752629625 0.116966136862653 -63.5094324964594
! Gamma         1.39236079826183E-21 10793.4631856369 0                10803.8628296629
! Port Impedance         50               0                50               0
12.4                           0.115813408957876 -71.1721278223957 0.993270501276835 -157.959485809239 0.993271473417676 -157.959485809239 0.115813408957875 -64.7468437960812
! Gamma         2.16912384891608E-20 10881.2153258799 0                10891.6995199287
! Port Impedance         50               0                50               0
12.5                           0.114646339988435 -72.5007811799871 0.993405695051745 -159.242709783444 0.993407045724509 -159.242709783444 0.114646339988435 -65.9846383869014
! Gamma         0                10968.9674758964 0                10979.5362201975
! Port Impedance         50               0                50               0
12.6                           0.113465941511799 -73.8300704646092 0.993541119225014 -160.526421789486 0.993542653661705 -160.526421789486 0.113465941511799 -67.2227731143619
! Gamma         3.81171217584391E-22 11056.7196353717 0                11067.3729305723
! Port Impedance         50               0                50               0
12.7                           0.112273165017047 -75.1598819069226 0.993676454177805 -161.810623320302 0.993678306722133 -161.810623320302 0.112273165017047 -68.4613647336821
! Gamma         1.39343980369385E-20 11144.4718062129 0                11155.209650576
! Port Impedance         50               0                50               0
12.8                           0.111069228868614 -76.490678429645 0.993812442122708 -163.095299614122 0.993812901244179 -163.095299614122 0.111069228868614 -69.6999207985993
! Gamma         8.00239056319249E-21 11232.2239850036 0                11243.0463810222
! Port Impedance         50               0                50               0
12.9                           0.999842574409371 179.958504991607 0.0380555908290699 -125.674571073939 0.0380554041627666 -125.674571073944 1 18.6508578521043
! Gamma         9.3311233942574E-21 11319.9761753827 0                11330.883122002
! Port Impedance         50               0                50               0
13                             0.108629841207588 -79.1558300427441 0.994087210687068 -165.666180366753 0.994077327396873 -165.666180366753 0.108629841207588 -72.1765306907617
! Gamma         1.62472839351243E-21 11407.7283756175 0                11418.7198724425
! Port Impedance         50               0                50               0
13.1                           0.107397237548798 -80.4863526069294 0.994218491968223 -166.952346238623 0.994213888951164 -166.952346238623 0.107397237548798 -73.4183398703164
! Gamma         4.7448303676109E-21 11495.4805867658 0                11506.556633806
! Port Impedance         50               0                50               0
13.2                           0.106158282069648 -81.8180480052341 0.994350468727906 -168.238932890504 0.994348019378846 -168.238932890504 0.106158282069648 -74.6598177757744
! Gamma         1.2449164903625E-21 11583.2328083106 0                11594.3934059823
! Port Impedance         50               0                50               0
13.3                           0.104912151454783 -83.1499895093189 0.994481379258926 -169.526046853304 0.994481607301802 -169.526046853304 0.104912151454783 -75.9021041972891
! Gamma         2.20772124813769E-21 11670.9850393564 0                11682.2301876623
! Port Impedance         50               0                50               0
13.4                           0.103659937100619 -84.4871651260911 0.994620243222308 -170.813680479169 0.994605352325599 -170.813680479169 0.103659937100619 -77.1401958322463
! Gamma         1.89206964432144E-21 11758.7372819036 0                11770.0669806021
! Port Impedance         50               0                50               0
13.5                           0.102404480255018 -85.821009025308 0.994751257943578 -172.101723252818 0.994734426844852 -172.101723252818 0.102404480255018 -78.3824374803278
! Gamma         0                11846.4895350809 0                11857.9037844082
! Port Impedance         50               0                50               0
13.6                           0.101143103241948 -87.1475616781036 0.994867745222044 -173.390408975655 0.994876029924643 -173.390408975655 0.101143103241948 -79.6332562732067
! Gamma         0                11934.2417982054 0                11945.7405983377
! Port Impedance         50               0                50               0
13.7                           0.0998832137127083 -88.4872834214593 0.995005827222179 -174.679313356784 0.994992508116592 -174.679313356784 0.0998832137127083 -80.8713432921084
! Gamma         7.48293963145718E-21 12021.9940729482 0                12033.5774234884
! Port Impedance         50               0                50               0
13.8                           0.0986211458984856 -89.823262448129 0.995135488449067 -175.968764515437 0.995114616126318 -175.968764515437 0.0986211458984855 -82.1142665827442
! Gamma         3.14611670739556E-23 12109.7463582442 0                12121.4142595266
! Port Impedance         50               0                50               0
13.9                           0.0973585520119255 -91.1668819741521 0.995276398717784 -177.258671941206 0.995222345899322 -177.258671941206 0.0973585520119256 -83.3504619082593
! Gamma         7.98579495505848E-21 12197.498654945  0                12209.2511069915
! Port Impedance         50               0                50               0
14                             0.096096719242838 -92.5045093899741 0.995405163330857 -178.549054702773 0.995338839950792 -178.549054702773 0.0960967192428381 -84.5936000155725
! Gamma         5.26102132402714E-22 12285.2509625916 0                12297.0879650373
! Port Impedance         50               0                50               0
