! Touchstone file exported from HFSS 2026.1.0
!        File:           C:/Users/urbaneja/Ansys/15-4-15_super_cell.aedt
!        Generated:      01:59:57 PM Aug 12, 2026
!        Design:         HFSSDesign_Supercell_15_4_15
!        Project:        15-4-15_super_cell
!        Setup:          Setup1
!        Solution:       Sweep_16_2_16_fine
!
! Variables:
!        stub_length = 12um
!
# GHz S MA R 50.000000
! Terminal data exported
! Port[1] = Port1
! Port[2] = Port2
3                              0.0806067511813819 -119.75098980091 0.996745983795027 -45.1443100156248 0.996745979232648 -45.1443100156248 0.0806067511813809 -150.53763023034 
! Gamma         1.19275398148058E-20 2664.13816131416 1.33591917897133E-30 2520.11647558328 
! Port Impedance         50               0                50               0                
3.1                            0.0822040974025935 -121.964922461096 0.996615518676872 -46.6442188056307 0.996615512960179 -46.6442188056308 0.0822040974025938 -151.323515150166 
! Gamma         0                2752.94279194674 2.48211928169225E-30 2604.12037599984 
! Port Impedance         50               0                50               0                
3.2                            0.0837392358835876 -124.148504616749 0.996487704805429 -48.14381250308  0.996487699331444 -48.14381250308  0.0837392358835866 -152.139120389411 
! Gamma         4.39590506866756E-22 2841.74743009848 1.49742963041914E-29 2688.12427817675 
! Port Impedance         50               0                50               0                
3.3                            0.0852099636628093 -126.304689526575 0.996363019910645 -49.6431069563657 0.996363014538228 -49.6431069563657 0.0852099636628095 -152.981524386157 
! Gamma         0                2930.55206686389 3.52969149653493E-30 2772.12818217081 
! Port Impedance         50               0                50               0                
3.4                            0.0866138257426575 -128.435770795637 0.996241963811458 -51.1421171868439 0.996241958522893 -51.1421171868439 0.0866138257426566 -153.848463578051 
! Gamma         0                3019.35670631601 5.10601895995371E-32 2856.13208803879 
! Port Impedance         50               0                50               0                
3.5                            0.0879487110029329 -130.544062036683 0.996125006971381 -52.6408609249413 0.996125001670026 -52.6408609249413 0.0879487110029334 -154.737659813199 
! Gamma         1.43871906177874E-21 3108.16134719313 6.72849236732112E-30 2940.13599583747 
! Port Impedance         50               0                50               0                
3.6                            0.0892123321117838 -132.631459841932 0.996012633135953 -54.1393564296469 0.996012627546427 -54.1393564296469 0.0892123321117841 -155.647253017362 
! Gamma         5.56014947179031E-22 3196.96599483284 1.66284765417017E-31 3024.13990562365 
! Port Impedance         50               0                50               0                
3.7                            0.0904028414853665 -134.700024937957 0.995905282389667 -55.6376256029185 0.99590527712785 -55.6376256029184 0.0904028414853676 -156.57522626788 
! Gamma         0                3285.77064407962 0                3108.14381885907 
! Port Impedance         50               0                50               0                
3.8                            0.0915185381476828 -136.751392013088 0.995803375348958 -57.1356912886679 0.995803370146056 -57.135691288668 0.0915185381476831 -157.519990564248 
! Gamma         2.51828996529206E-22 3374.57529883574 0                3192.14773022099 
! Port Impedance         50               0                50               0                
3.9                            0.0925575642132134 -138.787359921161 0.995707337646112 -58.6335778973407 0.995707332689443 -58.6335778973407 0.0925575642132137 -158.47979587352 
! Gamma         3.091995434465E-22 3463.37995122309 0                3276.15164325576 
! Port Impedance         50               0                50               0                
4                              0.0935179263400272 -140.809351979883 0.995617598511781 -60.131310118868 0.99561759347641 -60.131310118868 0.0935179263400268 -159.453268257853 
! Gamma         0                3552.18460858479 0                3360.155565394   
! Port Impedance         50               0                50               0                
4.1                            0.094398439172313 -142.818699719709 0.9955344995136  -61.6289160722226 0.995534494451031 -61.6289160722226 0.0943984391723126 -160.439132424736 
! Gamma         0                3640.98927048104 0                3444.15948558597 
! Port Impedance         50               0                50               0                
4.2                            0.0951974409023396 -144.816868728836 0.995458413166728 -63.1264243214929 0.995458408044691 -63.1264243214929 0.0951974409023404 -161.435979914149 
! Gamma         4.13217067201297E-21 3729.79393298383 0                3528.16340967386 
! Port Impedance         50               0                50               0                
4.3                            0.0959131855272941 -146.804990573951 0.995389705567851 -64.6238638942887 0.995389700435743 -64.6238638942887 0.0959131855272937 -162.442737214626 
! Gamma         0                3818.59860517968 0                3612.16733724808 
! Port Impedance         50               0                50               0                
4.4                            0.096544845464945 -148.784374017432 0.995328637917862 -66.1212677078684 0.995328633250782 -66.1212677078684 0.0965448454649456 -163.458161398305 
! Gamma         0                3907.40327586092 0                3696.17126485981 
! Port Impedance         50               0                50               0                
4.5                            0.0970911829928385 -150.756152106377 0.995275493055621 -67.6186682852195 0.995275488140341 -67.6186682852195 0.097091182992838 -164.481184464062 
! Gamma         0                3996.2079528873  0                3780.17519060781 
! Port Impedance         50               0                50               0                
4.6                            0.0975506273114156 -152.721486512632 0.995230566148092 -69.1160987037756 0.995230561441341 -69.1160987037756 0.0975506273114164 -165.510710894919 
! Gamma         2.91602115013651E-31 4085.01263099291 0                3864.17912398574 
! Port Impedance         50               0                50               0                
4.7                            0.0979219798769198 -154.681331185298 0.995194097052837 -70.6135933023816 0.995194092077097 -70.6135933023817 0.0979219798769203 -166.545855419466 
! Gamma         1.27966643649458E-31 4173.81731594897 0                3948.18306243653 
! Port Impedance         50               0                50               0                
4.8                            0.0982045965981895 -156.636782839304 0.995166248211177 -72.1111888504254 0.99516624381822 -72.1111888504254 0.0982045965981889 -167.585594861547 
! Gamma         1.45364026475201E-21 4262.6220018569  0                4032.18699851105 
! Port Impedance         50               0                50               0                
4.9                            0.098396968206565 -158.588856396943 0.995147245896443 -73.6089211761617 0.995147241507626 -73.6089211761617 0.098396968206565 -168.628985955381 
! Gamma         6.39710730086889E-21 4351.42669459758 0                4116.19094265738 
! Port Impedance         50               0                50               0                
5                              0.0984986791368534 -160.538563224655 0.995137183930253 -75.1068284776676 0.995137179275278 -75.1068284776677 0.0984986791368532 -169.67509373068 
! Gamma         0                4440.23138966364 0                4200.19488486587 
! Port Impedance         50               0                50               0                
5.1                            0.0985085227688937 -162.486941572045 0.995136209435249 -76.604948835226 0.99513620502654 -76.6049488352261 0.0985085227688943 -170.722956098407 
! Gamma         2.61904842261383E-21 4529.03609057816 0                4284.19883360502 
! Port Impedance         50               0                50               0                
5.2                            0.0984260782016765 -164.434988127772 0.995144367194063 -78.1033213467669 0.995144362744222 -78.1033213467669 0.0984260782016764 -171.771654565762 
! Gamma         3.76657811788535E-22 4617.84079450467 0                4368.20278130676 
! Port Impedance         50               0                50               0                
5.3                            0.0982504059541614 -166.383749205656 0.995161726457697 -79.6019853575904 0.995161722361456 -79.6019853575904 0.0982504059541611 -172.820221509525 
! Gamma         0                4706.64550304333 0                4452.20673191786 
! Port Impedance         50               0                50               0                
5.4                            0.0979810104804091 -168.334275637498 0.99518828643545 -81.1009808339012 0.995188282543634 -81.1009808339012 0.0979810104804093 -173.867686030304 
! Gamma         0                4795.45021567391 0                4536.21068497766 
! Port Impedance         50               0                50               0                
5.5                            0.0976172880363569 -170.287654911126 0.995224029351216 -82.600348222385 0.995224025812673 -82.600348222385 0.0976172880363562 -174.913041533644 
! Gamma         3.64351633367606E-24 4884.2549322024  0                4620.21464306709 
! Port Impedance         50               0                50               0                
5.6                            0.0971585378212172 -172.244997268183 0.995268919437632 -84.1001277508871 0.995268915951028 -84.1001277508871 0.0971585378212167 -175.955258233591 
! Gamma         0                4973.05965641979 0                4704.21860608125 
! Port Impedance         50               0                50               0                
5.7                            0.0966048162405089 -174.207478521635 0.995322818633587 -85.6003606029173 0.995322814802096 -85.6003606029173 0.0966048162405094 -176.9932426842  
! Gamma         0                5061.86438236879 0                4788.22257071301 
! Port Impedance         50               0                50               0                
5.8                            0.0959556719214535 -176.176322055333 0.995385609891256 -87.101087211825 0.995385606523228 -87.1010872118251 0.095955671921453 -178.025852368317 
! Gamma         0                5150.66911283751 0                4872.22653946896 
! Port Impedance         50               0                50               0                
5.9                            0.095210792686925 -178.152822732874 0.995457135327178 -88.6023482548405 0.995457131994173 -88.6023482548405 0.0952107926869248 -179.051873776807 
! Gamma         5.66070799773546E-22 5239.47385055183 0                4956.23050947516 
! Port Impedance         50               0                50               0                
6                              0.0943701119698199 179.861630604334 0.995537184512306 -90.1041842714772 0.995537180715477 -90.1041842714772 0.09437011196982 179.930000852711 
! Gamma         1.38857431980398E-21 5328.27859307171 0                5040.23448225531 
! Port Impedance         50               0                50               0                
6.1                            0.0934337037540329 177.8655564652   0.995625505325092 -91.606635256445 0.99562550145713 -91.606635256445 0.0934337037540328 178.92117302191  
! Gamma         8.49412513528944E-21 5417.08333673368 0                5124.23845849703 
! Port Impedance         50               0                50               0                
6.2                            0.0924011168629437 175.857349717519 0.995721867492679 -93.1097412796556 0.995721863675723 -93.1097412796556 0.0924011168629432 177.92316772317  
! Gamma         0                5505.88809207557 0                5208.24244570951 
! Port Impedance         50               0                50               0                
6.3                            0.0912732802661835 173.835272483985 0.995825884376477 -94.6135412622362 0.99582588067629 -94.6135412622362 0.0912732802661835 176.937644991543 
! Gamma         0                5594.69284663845 0                5292.24642712728 
! Port Impedance         50               0                50               0                
6.4                            0.0900498175055595 171.797417040409 0.995937264133861 -96.1180739002318 0.995937260395448 -96.1180739002318 0.0900498175055606 175.966435159127 
! Gamma         0                5683.49760971836 0                5376.25041908559 
! Port Impedance         50               0                50               0                
6.5                            0.0887315071715899 169.741689371582 0.996055582444945 -97.6233770094113 0.996055578745673 -97.6233770094113 0.0887315071715897 175.011556609596 
! Gamma         0                5772.30237639809 0                5460.25440989446 
! Port Impedance         50               0                50               0                
6.6                            0.0873186920793118 167.665766791901 0.996180428220955 -99.1294876873352 0.996180428665725 -99.1294876873352 0.0873186920793123 174.075257833429 
! Gamma         0                5861.1071486709  0                5544.25840450713 
! Port Impedance         50               0                50               0                
6.7                            0.0858118672372807 165.567073104097 0.9963113581765  -100.636441793662 0.996311359189988 -100.636441793662 0.0858118672372806 173.160043308579 
! Gamma         5.66047534306129E-24 5949.91192713703 0                5628.26240640139 
! Port Impedance         50               0                50               0                
6.8                            0.0842119735966535 163.442704102515 0.996447862379859 -102.144274308526 0.996447863445209 -102.144274308526 0.0842119735966537 172.268747280434 
! Gamma         0                6038.71671153379 0                5712.26640876873 
! Port Impedance         50               0                50               0                
6.9                            0.0825199539844076 161.289395471819 0.996589411823737 -103.653018745037 0.996589413263878 -103.653018745037 0.0825199539844066 171.404567038106 
! Gamma         0                6127.5215016823  0                5796.27041229441 
! Port Impedance         50               0                50               0                
7                              0.080736705957695 159.103495390772 0.9967354626599  -105.162707700601 0.996735464453008 -105.162707700601 0.0807367059576951 170.571089208026 
! Gamma         0                6216.32629617789 0                5880.27442608902 
! Port Impedance         50               0                50               0                
7.1                            0.0788636368753867 156.880741187211 0.996885411935134 -106.673372119979 0.996885414191867 -106.673372119979 0.0788636368753872 169.772514572831 
! Gamma         0                6305.13109935264 0                5964.27844115611 
! Port Impedance         50               0                50               0                
7.2                            0.0769023319754017 154.616349932454 0.997038628769293 -108.185041183544 0.99703863286    -108.185041183544 0.0769023319754008 169.013567700459 
! Gamma         0                6393.93590645084 0                6048.28245860063 
! Port Impedance         50               0                50               0                
7.3                            0.0748546117314765 152.304734185536 0.997194455767528 -109.697742815448 0.997194460269191 -109.697742815448 0.0748546117314769 168.299780183569 
! Gamma         0                6482.74071958492 0                6132.28648290771 
! Port Impedance         50               0                50               0                
7.4                            0.0727224353150131 149.939468332756 0.997352217283367 -111.211502993657 0.997352219370699 -111.211502993657 0.072722435315012 167.637525679929 
! Gamma         0                6571.5455387349  0                6216.29051236569 
! Port Impedance         50               0                50               0                
7.5                            0.0705083419308373 147.512985261683 0.997511188436273 -112.726345933619 0.997511191105535 -112.726345933619 0.0705083419308383 167.034322871079 
! Gamma         0                6660.35036495474 0                6300.29454286591 
! Port Impedance         50               0                50               0                
7.6                            0.0682150943755457 145.016482846296 0.997670636076187 -114.242293845663 0.997670638893421 -114.242293845663 0.0682150943755466 166.498929462379 
! Gamma         0                6749.15519653302 0                6384.29857832892 
! Port Impedance         50               0                50               0                
7.7                            0.065845798017833 142.439531017898 0.997829809607398 -115.759367275076 0.997829811553881 -115.759367275076 0.0658457980178335 166.04173443195  
! Gamma         0                6837.96003570583 0                6468.30261879049 
! Port Impedance         50               0                50               0                
7.8                            0.0634043743096536 139.769748008943 0.997987917274974 -117.277584164903 0.997987919571156 -117.277584164903 0.063404374309654 165.675083661252 
! Gamma         0                6926.76488118863 0                6552.30666380888 
! Port Impedance         50               0                50               0                
7.9                            0.0608954108944013 136.992297513343 0.998144151621134 -118.79696049191 0.998144153140483 -118.79696049191 0.060895410894402 165.413781502837 
! Gamma         0                7015.56973234294 0                6636.31071239871 
! Port Impedance         50               0                50               0                
8                              0.0583244014024841 134.089277893509 0.998297682082879 -120.317509965285 0.998297684235537 -120.317509965285 0.0583244014024846 165.275702175922 
! Gamma         0                7104.37459052266 0                6720.31476379229 
! Port Impedance         50               0                50               0                
8.1                            0.0556978484949717 131.039051583826 0.998447667543539 -121.839243830026 0.998447672400977 -121.839243830026 0.055697848494972 165.282460756123 
! Gamma         0                7193.17945461956 0                6804.31882318872 
! Port Impedance         50               0                50               0                
8.2                            0.0530238224313529 127.815120021942 0.998593245313619 -123.362171055527 0.998593249988978 -123.362171055527 0.0530238224313525 165.460537867004 
! Gamma         0                7281.98432674858 0                6888.32288724302 
! Port Impedance         50               0                50               0                
8.3                            0.0503122249855096 124.385027516799 0.998733535348629 -124.886297844378 0.998733540742495 -124.886297844378 0.0503122249855103 165.842376794445 
! Gamma         0                7370.78920570133 0                6972.32695532294 
! Port Impedance         50               0                50               0                
8.4                            0.0475753696559149 120.708773684718 0.998867648244479 -126.41162793455 0.998867653743353 -126.41162793455 0.047575369655915 166.467970446181 
! Gamma         0                7459.59409047349 0                7056.33102519392 
! Port Impedance         50               0                50               0                
8.5                            0.0448285286909832 116.736873949521 0.998994693317391 -127.938162725701 0.998994699062261 -127.938162725701 0.0448285286909828 167.386800599079 
! Gamma         0                7548.39898347765 0                7140.33510203226 
! Port Impedance         50               0                50               0                
8.6                            0.0420913705970233 112.408249841925 0.999113762579978 -129.465900540269 0.999113768529795 -129.465900540269 0.0420913705970242 168.659949077537 
! Gamma         0                7637.20388292973 0                7224.33918354817 
! Port Impedance         50               0                50               0                
8.7                            0.0393890055452756 107.647745747944 0.999223948839396 -130.994837308419 0.999223955152254 -130.994837308419 0.0393890055452751 170.362579635219 
! Gamma         0                7726.00878957868 0                7308.34326959867 
! Port Impedance         50               0                50               0                
8.8                            0.0367539933279764 102.364407372983 0.999324343945002 -132.524965968749 0.999324343518052 -132.524965968749 0.036753993327976 172.585660689519 
! Gamma         0                7814.81370404611 0                7392.3473612738  
! Port Impedance         50               0                50               0                
8.9                            0.034228576759597 96.4512797466883 0.999414030569576 -134.05627684216 0.999414030603282 -134.05627684216 0.034228576759596 175.436166568991 
! Gamma         0                7903.61862427784 0                7476.35145801965 
! Port Impedance         50               0                50               0                
9                              0.0318673888269443 89.7894427386721 0.999492105610668 -135.588757594871 0.999492105962152 -135.588757594871 0.0318673888269448 179.033042071586 
! Gamma         0                7992.42355410792 0                7560.35556025516 
! Port Impedance         50               0                50               0                
9.1                            0.0297399923898595 82.261721900765  0.999557667828529 -137.122392797913 0.999557669367052 -137.122392797913 0.0297399923898597 -176.506507496591 
! Gamma         0                8081.22849026783 0                7644.35966677461 
! Port Impedance         50               0                50               0                
9.2                            0.0279320083119254 73.7805885574048 0.999609819357037 -138.65716456969 0.999609831318358 -138.65716456969 0.0279320083119251 -171.094917696787 
! Gamma         0                8170.03343456364 0                7728.36377760205 
! Port Impedance         50               0                50               0                
9.3                            0.026542103923437 64.3361336163094 0.99964768738199 -140.193051264937 0.999647705219431 -140.193051264937 0.0265421039234365 -164.722236146183 
! Gamma         0                8258.83838650774 0                7812.36789491662 
! Port Impedance         50               0                50               0                
9.4                            0.0256722459220193 54.0542450464558 0.999670403512129 -141.730030111178 0.999670423649982 -141.730030111178 0.0256722459220188 -157.514305268812 
! Gamma         0                8347.64334642564 0                7896.37201690989 
! Port Impedance         50               0                50               0                
9.5                            0.0254094977387227 43.2327883141568 0.999677122059302 -143.268074211036 0.999677131118124 -143.268074211036 0.025409497738723 -149.76893673623 
! Gamma         5.33122584233403E-21 8436.4483147883  0                7980.37614262416 
! Port Impedance         50               0                50               0                
9.6                            0.0258045655108699 32.3095558474114 0.999667002066862 -144.807154525059 0.999667011447433 -144.807154525059 0.0258045655108696 -141.923864897528 
! Gamma         0                8525.25329087704 0                8064.38027723851 
! Port Impedance         50               0                50               0                
9.7                            0.0268585259084327 21.751652974249  0.999639242358738 -146.347239082626 0.999639247082916 -146.347239082626 0.0268585259084328 -134.4461311395  
! Gamma         0                8614.05827422938 0                8148.38441535432 
! Port Impedance         50               0                50               0                
9.8                            0.0285257563469402 11.9257609537734 0.999593055413373 -147.888293357562 0.999593060209517 -147.888293357562 0.0285257563469407 -127.702347668897 
! Gamma         0                8702.86326576454 0                8232.38855970997 
! Port Impedance         50               0                50               0                
9.9                            0.0307309942559351 3.02974009269887 0.999527688967905 -149.430280124562 0.999527693948778 -149.430280124562 0.0307309942559357 -121.890300341825 
! Gamma         0                8791.66826604209 0                8316.39270935543 
! Port Impedance         50               0                50               0                
10                             0.0333892952489004 -4.89521491607206 0.9994424199752  -150.973159786046 0.999442424094394 -150.973159786046 0.0333892952489002 -117.05110465602 
! Gamma         0                8880.47327452417 0                8400.39686467218 
! Port Impedance         50               0                50               0                
10.1                           0.036420353014841 -11.910251776848 0.999336557101692 -152.516890147526 0.999336560630445 -152.516890147526 0.0364203530148421 -113.123528518205 
! Gamma         1.03557882518501E-23 8969.27829141441 0                8484.40102551423 
! Port Impedance         50               0                50               0                
10.2                           0.0397552542172113 -18.1244589798114 0.999209445878588 -154.061426702943 0.999209448910116 -154.061426702943 0.0397552542172122 -109.998394426075 
! Gamma         0                9058.08331650936 0                8568.40519135286 
! Port Impedance         50               0                50               0                
10.3                           0.0433378543149794 -23.6584036103027 0.999060510710474 -155.606722485225 0.999060436963491 -155.606722485225 0.04333785431498 -107.555041360149 
! Gamma         0                9146.88834967051 0                8652.40936362483 
! Port Impedance         50               0                50               0                
10.4                           0.0471237294045948 -28.6248273873048 0.998889106403469 -157.152728758868 0.998889013535784 -157.152728758868 0.0471237294045948 -105.680630130432 
! Gamma         0                9235.69339235146 0                8736.41354209052 
! Port Impedance         50               0                50               0                
10.5                           0.051077816002289 -33.121723919139 0.998694759529705 -158.699393656237 0.998694593313093 -158.699393656237 0.0510778160022893 -104.277063393334 
! Gamma         0                9324.49844396272 0                8820.41772634354 
! Port Impedance         50               0                50               0                
10.6                           0.0551722178764367 -37.2309124804397 0.998476959734291 -160.246665999523 0.998476746664138 -160.246665999523 0.0551722178764366 -103.262419518606 
! Gamma         0                9413.30350413773 0                8904.4219159393  
! Port Impedance         50               0                50               0                
10.7                           0.0593852402100293 -41.0188861475955 0.998235169662398 -161.794491761876 0.998235108849353 -161.794491761876 0.0593852402100285 -102.570097376156 
! Gamma         0                9502.10857215609 0                8988.42611079371 
! Port Impedance         50               0                50               0                
10.8                           0.0636991784684297 -44.5398318607323 0.997969186079744 -163.342810164629 0.997969104211266 -163.342810164629 0.0636991784684304 -102.145788468525 
! Gamma         0                9590.91364977443 0                9072.43031443928 
! Port Impedance         50               0                50               0                
10.9                           0.0680995938152191 -47.8372536582853 0.997678540367761 -164.891564276455 0.997678515722403 -164.891564276455 0.0680995938152196 -101.945874894624 
! Gamma         0                9679.71873759516 0                9156.43452227865 
! Port Impedance         50               0                50               0                
11                             0.0725744026656559 -50.9464774178529 0.997362843747143 -166.440693497062 0.997363158567709 -166.440693497062 0.072574402665656 -101.934909576271 
! Gamma         0                9768.52383362859 0                9240.43873539988 
! Port Impedance         50               0                50               0                
11.1                           0.0771133037145931 -53.8962388861982 0.997021824279903 -167.990137625037 0.997022847627406 -167.990137625037 0.0771133037145927 -102.084036363875 
! Gamma         0                9857.32893881091 0                9324.44295665362 
! Port Impedance         50               0                50               0                
11.2                           0.081707704774242 -56.7097369611834 0.996654890933018 -169.539828186871 0.996657779956938 -169.539828186871 0.0817077047742422 -102.369919412559 
! Gamma         0                9946.13405356523 0                9408.44718371483 
! Port Impedance         50               0                50               0                
11.3                           0.086348298651233 -59.4078822466442 0.996264740694271 -171.089731667476 0.996265280479926 -171.089731667476 0.0863482986512334 -102.771581088309 
! Gamma         0                10034.9391775776 0                9492.45141857072 
! Port Impedance         50               0                50               0                
11.4                           0.0910302567527807 -62.0042851573475 0.995847411069903 -172.639741847841 0.995848843238003 -172.639741847841 0.0910302567527806 -103.275198538334 
! Gamma         0                10123.7443112691 0                9576.45565693785 
! Port Impedance         50               0                50               0                
11.5                           0.0957458031286201 -64.5135161170055 0.995405314079726 -174.18983299005 0.995406320589419 -174.18983299005 0.09574580312862 -103.866149863094 
! Gamma         0                10212.5494549528 0                9660.45990356356 
! Port Impedance         50               0                50               0                
11.6                           0.100489641204421 -66.9468866118026 0.994938863656294 -175.739908361993 0.994937345569981 -175.739908361993 0.100489641204421 -104.532930112183 
! Gamma         0                10301.3546070613 0                9744.46415691264 
! Port Impedance         50               0                50               0                
11.7                           0.105258550685127 -69.3082249502999 0.994437886348804 -177.289937243715 0.994451891951346 -177.289937243715 0.105258550685127 -105.27164953713 
! Gamma         0                10390.1597697988 0                9828.46841546046 
! Port Impedance         50               0                50               0                
11.8                           0.110044093919691 -71.6129744867615 0.993916640630805 -178.839837614102 0.993936771967529 -178.839837614102 0.110044093919691 -106.066700741443 
! Gamma         0                10478.9649411024 0                9912.47267971597 
! Port Impedance         50               0                50               0                
11.9                           0.114841064224711 -73.8719823952063 0.993384517432608 179.610555865575 0.993383239471196 179.610555865575 0.114841064224712 -106.906905873644 
! Gamma         0                10567.7701239604 0                9996.4769534297  
! Port Impedance         50               0                50               0                
12                             0.119649255606602 -76.0759477478403 0.992811215120912 178.061124495075 0.992821233906733 178.061124495075 0.119649255606602 -107.80180326201 
! Gamma         0                10656.5753161709 0                10080.481231802  
! Port Impedance         50               0                50               0                
12.1                           0.124460501631361 -78.2414259244529 0.992221175320242 176.512029957383 0.992227950805341 176.512029957383 0.12446050163136 -108.734514160782 
! Gamma         0                10745.3805179285 0                10164.4855192675 
! Port Impedance         50               0                50               0                
12.2                           0.129272203624152 -80.3693925421624 0.991608090809807 174.963345042657 0.991610200121644 174.963345042657 0.129272203624152 -109.703917372523 
! Gamma         0                10834.1857304948 0                10248.4898111897 
! Port Impedance         50               0                50               0                
12.3                           0.13407231007807 -82.4796114225293 0.991011881217594 173.415063348041 0.990931223209734 173.415063348041 0.13407231007807 -110.69026188139 
! Gamma         0                10922.9909530837 0                10332.4941124555 
! Port Impedance         50               0                50               0                
12.4                           0.138894815651515 -84.5018098988671 0.990250406246224 171.867468054179 0.990363875641047 171.867468054179 0.138894815651515 -111.763253992774 
! Gamma         0                11011.796186245  0                10416.498418313  
! Port Impedance         50               0                50               0                
12.5                           0.143672985285619 -86.5569251338872 0.989620999190496 170.320297084045 0.989629438037621 170.320297084045 0.143672985285619 -112.802480698023 
! Gamma         0                11100.6014294432 0                10500.502733641  
! Port Impedance         50               0                50               0                
12.6                           0.148447865412421 -88.5670054254577 0.988920456763356 168.773785275433 0.988920013299429 168.773785275433 0.148447865412419 -113.885424023676 
! Gamma         0                11189.4066832004 0                10584.5070534676 
! Port Impedance         50               0                50               0                
12.7                           0.153204973972438 -90.5521897241054 0.988195510696442 167.22800052114  0.988193353825181 167.22800052114  0.153204973972438 -114.991809233615 
! Gamma         0                11278.2119479976 0                10668.5113831973 
! Port Impedance         50               0                50               0                
12.8                           0.157940863590303 -92.5151114211661 0.987448465316576 165.68296360662  0.987448679963006 165.68296360662  0.157940863590304 -116.118961365593 
! Gamma         0                11367.0172229275 0                10752.515718053  
! Port Impedance         50               0                50               0                
12.9                           0.162651315847344 -94.4586410550546 0.986683604945034 164.138751181364 0.986683618308791 164.138751181364 0.162651315847344 -117.263856582217 
! Gamma         0                11455.8225085547 0                10836.5200609134 
! Port Impedance         50               0                50               0                
13                             0.167333373135709 -96.3837953839309 0.985900375269881 162.595412099266 0.985900367437175 162.595412099266 0.167333373135708 -118.425380417537 
! Gamma         1.65129267480718E-29 11544.627805963  0                10920.5244121592 
! Port Impedance         50               0                50               0                
13.1                           0.171984032779845 -98.29197600433  0.985099740293442 161.052985130492 0.98509973434742 161.052985130492 0.171984032779846 -119.602053734685 
! Gamma         5.83288304872803E-29 11633.4331139633 0                11004.5287682536 
! Port Impedance         50               0                50               0                
13.2                           0.176600054398573 -100.184382776813 0.984282643384992 159.511525712928 0.984282743678818 159.511525712928 0.176600054398574 -120.792565797332 
! Gamma         5.33224731018307E-29 11722.23843281   0                11088.5331343756 
! Port Impedance         50               0                50               0                
13.3                           0.181178432059761 -102.06212034021 0.98345018667261 157.971080329598 0.983450294547902 157.971080329598 0.181178432059761 -121.995719000596 
! Gamma         1.05079250521485E-29 11811.0437614232 0                11172.5375062036 
! Port Impedance         50               0                50               0                
13.4                           0.185716130020354 -103.926169337357 0.982603465559643 156.431695312348 0.982603413168665 156.431695312348 0.185716130020354 -123.210440037947 
! Gamma         9.17488842081518E-29 11899.8491020559 0                11256.5418861195 
! Port Impedance         50               0                50               0                
13.5                           0.190210367713898 -105.777366949929 0.981743379759487 154.893410234439 0.981743331185248 154.893410234439 0.190210367713898 -124.435812581194 
! Gamma         0                11988.6544545221 0                11340.5462731605 
! Port Impedance         50               0                50               0                
13.6                           0.194658279110114 -107.616547878814 0.980871144887875 153.356264927846 0.980871095442274 153.356264927846 0.194658279110113 -125.670922265494 
! Gamma         0                12077.459817578  0                11424.5506685778 
! Port Impedance         50               0                50               0                
13.7                           0.19905713881558 -109.444425863508 0.979987911109458 151.820295451425 0.979987859645431 151.820295451425 0.199057138815579 -126.914983233642 
! Gamma         0                12166.2651923009 0                11508.5550708401 
! Port Impedance         50               0                50               0                
13.8                           0.203404259674659 -111.261671428884 0.979094867377727 150.285535414523 0.979094814084419 150.285535414523 0.203404259674659 -128.167257742069 
! Gamma         0                12255.0705793428 0                11592.5594820627 
! Port Impedance         50               0                50               0                
13.9                           0.207697083634206 -113.068890235431 0.978193221115929 148.752014126505 0.978193163471581 148.752014126505 0.207697083634205 -129.42708151156 
! Gamma         0                12343.8759767872 0                11676.5639002925 
! Port Impedance         50               0                50               0                
14                             0.211933062928204 -114.866638289041 0.977284214180621 147.219759799658 0.977284154373286 147.219759799658 0.211933062928204 -130.693842111644 
! Gamma         0                12432.6813862206 0                11760.5683270139 
! Port Impedance         50               0                50               0                
