! Touchstone file exported from HFSS 2026.1.0
!        File:           C:/Users/urbaneja/Ansys/13-3-3_super_cell.aedt
!        Generated:      09:22:44 AM Aug 12, 2026
!        Design:         HFSSDesign_Supercell_13_3_13
!        Project:        13-3-3_super_cell
!        Setup:          Setup1
!        Solution:       Sweep_aux_14_27GHz
!
! Variables:
!        stub_length = 12um
!
# GHz S MA R 50.000000
! Terminal data exported
! Port[1] = Port1
! Port[2] = Port2
14                             0.0972859151804361 -95.6496296614913 0.995230305814955 179.318913377684 0.995282644549691 179.318913377684 0.0972859151804359 -85.7125435831411 
! Gamma         0                12516.9952816227 0                12034.8092072632 
! Port Impedance         50               0                50               0                
14.2                           0.103392755910778 -98.0000589095569 0.99464409010021 176.685544062569 0.99463712484885 176.685544062569 0.103392755910778 -88.6288529653047 
! Gamma         0                12695.8106650067 0                12206.7359551939 
! Port Impedance         50               0                50               0                
14.4                           0.109495745518106 -100.383584926578 0.994025059868422 174.051859266522 0.993949470292244 174.051859266522 0.109495745518106 -91.5126965403781 
! Gamma         0                12874.6260971259 0                12378.6627415138 
! Port Impedance         50               0                50               0                
14.6                           0.115588478218412 -102.754436453767 0.993291243484525 171.417585571126 0.993303132565593 171.417585571126 0.115588478218413 -94.410392403981 
! Gamma         0                13053.4415801159 0                12550.589566373  
! Port Impedance         50               0                50               0                
14.8                           0.121658300550167 -105.172957046397 0.992568768963357 168.783446509301 0.992575314389744 168.783446509301 0.121658300550166 -97.2601499350013 
! Gamma         0                13232.2571140239 0                12722.5164309484 
! Port Impedance         50               0                50               0                
15                             0.127693346085209 -107.611290300771 0.991812378997482 166.149472387673 0.991815014811445 166.149472387673 0.127693346085209 -100.089764923883 
! Gamma         0                13411.0726998329 0                12894.4433352607 
! Port Impedance         50               0                50               0                
15.2                           0.133684478354888 -110.06652428834 0.991023361914757 163.515738461553 0.991024528775396 163.515738461553 0.133684478354888 -102.901998788554 
! Gamma         0                13589.8883368861 0                13066.3702803192 
! Port Impedance         50               0                50               0                
15.4                           0.139620836604399 -112.536608039718 0.990204546657432 160.882382398577 0.990205534094664 160.882382398577 0.1396208366044  -105.698627163127 
! Gamma         0                13768.7040282295 0                13238.2972665924 
! Port Impedance         50               0                50               0                
15.6                           0.14549206590568 -115.01987190085 0.989359085015363 158.249531998776 0.989359751766264 158.249531998776 0.14549206590568 -108.481064101598 
! Gamma         0                13947.5197726062 0                13410.2242943853 
! Port Impedance         50               0                50               0                
15.8                           0.151288058293841 -117.514551195208 0.98848944474187 155.617297119989 0.988489992093782 155.617297119989 0.151288058293841 -111.250854564813 
! Gamma         0                14126.335571024  0                13582.1513640907 
! Port Impedance         50               0                50               0                
16                             0.156998797302928 -120.019214947329 0.987598555178123 152.985780593621 0.987599032553788 152.985780593621 0.156998797302928 -114.009223865429 
! Gamma         0                14305.1514265646 0                13754.0784771108 
! Port Impedance         50               0                50               0                
16.2                           0.162614527939186 -122.532629416304 0.986689460451652 150.355072771979 0.986689890107345 150.355072771979 0.162614527939186 -116.757225039739 
! Gamma         0                14483.9673361556 0                13926.0056328288 
! Port Impedance         50               0                50               0                
16.4                           0.168125687288645 -125.053706772605 0.985765370410828 147.725251799017 0.985765763782857 147.725251799017 0.168125687288644 -119.495789629362 
! Gamma         0                14662.7833027314 0                14097.932832368  
! Port Impedance         50               0                50               0                
16.6                           0.173523015108524 -127.581514546836 0.984829644154075 145.096379697857 0.984829984540869 145.096379697857 0.173523015108524 -122.22572605745 
! Gamma         0                14841.5993265727 0                14269.8600762226 
! Port Impedance         50               0                50               0                
16.8                           0.178797380034859 -130.11525055665 0.983885762726869 142.468512159977 0.983886070482146 142.468512159977 0.17879738003486 -124.947725123395 
! Gamma         0                15020.4154075115 0                14441.7873650357 
! Port Impedance         50               0                50               0                
17                             0.183940680590298 -132.654437799161 0.98293720670062 139.841674863181 0.982937485159465 139.841674863181 0.183940680590299 -127.662212474476 
! Gamma         0                15199.2315491279 0                14613.7146991537 
! Port Impedance         50               0                50               0                
17.2                           0.188944556279054 -135.198471289644 0.981987708604537 137.215884930132 0.981987805145585 137.215884930131 0.188944556279054 -130.369758850093 
! Gamma         0                15378.0477481137 0                14785.6420792746 
! Port Impedance         50               0                50               0                
17.4                           0.19380022006483 -137.746524159398 0.981040973641838 134.59115945451  0.981041057979496 134.59115945451  0.19380022006483 -133.071156931583 
! Gamma         0                15556.8640069185 0                14957.5695057883 
! Port Impedance         50               0                50               0                
17.6                           0.198499781299767 -140.298184697731 0.980100895494309 131.967483967319 0.980100968420676 131.967483967319 0.198499781299767 -135.766847367631 
! Gamma         0                15735.6803281798 0                15129.4969798158 
! Port Impedance         50               0                50               0                
17.8                           0.203035729199876 -142.853083242993 0.979171298147414 129.344829071295 0.97917136100933 129.344829071295 0.203035729199877 -138.457258614416 
! Gamma         0                15914.4967099639 0                15301.4245005947 
! Port Impedance         50               0                50               0                
18                             0.207400838758394 -145.410910310773 0.978256019515416 126.723149108158 0.978256073043499 126.723149108158 0.207400838758393 -141.142791472911 
! Gamma         0                16093.3131534223 0                15473.3520703019 
! Port Impedance         50               0                50               0                
18.2                           0.211588268489309 -147.971396608698 0.97735887002417 124.102380671522 0.977358914862127 124.102380671522 0.211588268489308 -143.823842048259 
! Gamma         0                16272.1296607496 0                15645.2796879468 
! Port Impedance         50               0                50               0                
18.4                           0.215593315763199 -150.534027867273 0.976483223840733 121.482427997871 0.976483260457683 121.482427997871 0.215593315763199 -146.501116136985 
! Gamma         0                16450.9462304891 0                15817.2073548917 
! Port Impedance         50               0                50               0                
18.6                           0.219408056164026 -153.099017692848 0.975633167103705 118.863211689029 0.975633195943969 118.863211689029 0.219408056164026 -149.174558929093 
! Gamma         0                16629.7628660179 0                15989.1350720133 
! Port Impedance         50               0                50               0                
18.8                           0.223026678152885 -155.666265713765 0.974812320594853 116.244618263428 0.974812362088551 116.244618263428 0.223026678152884 -151.84449775938 
! Gamma         0                16808.5795636342 0                16161.062838795  
! Port Impedance         50               0                50               0                
19                             0.226443691853097 -158.235662555712 0.97402423863368 113.626517014719 0.974024276593742 113.626517014719 0.226443691853097 -154.511303414848 
! Gamma         0                16987.3963289391 0                16332.9906568793 
! Port Impedance         50               0                50               0                
19.2                           0.22965398013293 -160.80718220457 0.973272323435711 111.008762189287 0.973272358208257 111.008762189287 0.22965398013293 -157.175293416856 
! Gamma         0                17166.2131606073 0                16504.918525904  
! Port Impedance         50               0                50               0                
19.4                           0.232654878510798 -163.380999174165 0.972559358759497 108.391181581849 0.972559359987641 108.391181581849 0.232654878510798 -159.836637662138 
! Gamma         0                17345.0300587651 0                16676.8464467964 
! Port Impedance         50               0                50               0                
19.6                           0.235439913619782 -165.956889597123 0.971888906587142 105.773613180766 0.971888906924177 105.773613180766 0.235439913619783 -162.495884041346 
! Gamma         0                17523.8470240854 0                16848.774420402  
! Port Impedance         50               0                50               0                
19.8                           0.238005010383203 -168.534914432611 0.971263927923619 103.155864253844 0.971263925191996 103.155864253844 0.238005010383204 -165.153357059701 
! Gamma         0                17702.6640589343 0                17020.7024468066 
! Port Impedance         50               0                50               0                
20                             0.240346456681944 -171.11515521922 0.970687171556546 100.53773089844  0.970687167163769 100.53773089844  0.240346456681943 -167.809382983899 
! Gamma         0                17881.4811620578 0                17192.6305267164 
! Port Impedance         50               0                50               0                
20.2                           0.242460894214139 -173.697731947197 0.970161191633477 97.9189925346317 0.970161167952043 97.9189925346317 0.24246089421414 -170.46428298354 
! Gamma         0                18060.2983350338 0                17364.5586606424 
! Port Impedance         50               0                50               0                
20.4                           0.244345301051968 -176.28273582257 0.969688288737508 95.2994259084396 0.969688285168472 95.2994259084396 0.244345301051967 -173.118412360551 
! Gamma         0                18239.1155788485 0                17536.4868490145 
! Port Impedance         50               0                50               0                
20.6                           0.245997046313672 -178.87033443571 0.969270580273112 92.6787896914335 0.969270575549945 92.6787896914335 0.245997046313671 -175.772086181423 
! Gamma         0                18417.9328939055 0                17708.4150928158 
! Port Impedance         50               0                50               0                
20.8                           0.247413853087828 178.539303918537 0.968909894296553 90.0568325890319 0.968909896396312 90.0568325890319 0.247413853087829 -178.425638740473 
! Gamma         0                18596.7502802174 0                17880.3433920265 
! Port Impedance         50               0                50               0                
21                             0.248593778594581 175.946000264397 0.968607829270936 87.433297330566  0.968607835794849 87.433297330566  0.24859377859458 178.920594396734 
! Gamma         0                18775.567739323  0                18052.2717475159 
! Port Impedance         50               0                50               0                
21.2                           0.249535270341455 173.349553981198 0.968365704183539 84.807917564601  0.968365716386299 84.807917564601  0.249535270341455 176.266281148004 
! Gamma         0                18954.3852710317 0                18224.2001597996 
! Port Impedance         50               0                50               0                
21.4                           0.250237114802141 170.749750736265 0.968184565919454 82.1804214602276 0.968184599684565 82.1804214602276 0.250237114802141 173.61109218419  
! Gamma         0                19133.2028782044 0                18396.1286293009 
! Port Impedance         50               0                50               0                
21.6                           0.250698507918249 168.146390633081 0.968065230249759 79.5505354372038 0.968065197306778 79.5505354372038 0.250698507918249 170.954680241326 
! Gamma         0                19312.0205593169 0                18568.0571564769 
! Port Impedance         50               0                50               0                
21.8                           0.250918995036916 165.539195205605 0.968008105729197 76.9179702812677 0.968008069750403 76.9179702812677 0.250918995036917 168.296745356931 
! Gamma         0                19490.8383155512 0                18739.985741943  
! Port Impedance         50               0                50               0                
22                             0.250898523848864 162.927945705383 0.968013406931875 74.2824475146348 0.96801338082749 74.2824475146348 0.250898523848865 165.636949323887 
! Gamma         0                19669.6561481451 0                18911.914386671  
! Port Impedance         50               0                50               0                
22.2                           0.250637411414945 160.312379441163 0.968081039688934 71.6436808462441 0.968081027906871 71.6436808462441 0.250637411414945 162.974982251326 
! Gamma         0                19848.4740570187 0                19083.8430903572 
! Port Impedance         50               0                50               0                
22.4                           0.250136393555062 157.692250121696 0.968210623546635 69.0013856836014 0.968210595733165 69.0013856836014 0.250136393555063 160.310521245507 
! Gamma         0                20027.292043853  0                19255.7718543957 
! Port Impedance         50               0                50               0                
22.6                           0.249396676716166 155.067296163434 0.968401410540643 66.3552787178383 0.968401416432647 66.3552787178382 0.249396676716166 157.643261272243 
! Gamma         0                20206.1101086764 0                19427.7006788827 
! Port Impedance         50               0                50               0                
22.8                           0.2484197033012  152.437235921267 0.968652441957882 63.7050835335669 0.968652542820453 63.7050835335669 0.248419703301201 154.972931145867 
! Gamma         0                20384.9282526197 0                19599.6295642104 
! Port Impedance         50               0                50               0                
23                             0.247207530936998 149.801814319201 0.968962427525478 61.0505240082386 0.96896268624755 61.0505240082386 0.247207530936997 152.299233697276 
! Gamma         0                20563.7464748732 0                19771.558511206  
! Port Impedance         50               0                50               0                
23.2                           0.245762570595856 147.160759941451 0.969329801715419 58.391331365254  0.969330311759021 58.3913313652541 0.245762570595856 149.621902789057 
! Gamma         0                20742.5647789919 0                19943.4875204318 
! Port Impedance         50               0                50               0                
23.4                           0.244088106838495 144.513513683292 0.969751375523685 55.7272295664646 0.969754743159971 55.7272295664647 0.244088106838493 146.940945449638 
! Gamma         0                20921.3831637603 0                20115.4165922402 
! Port Impedance         50               0                50               0                
23.6                           0.242187236620257 141.860215510749 0.970226921448798 53.0579683005515 0.97023214013952 53.0579683005515 0.242187236620256 144.255721090354 
! Gamma         0                21100.2016288668 0                20287.3457272859 
! Port Impedance         50               0                50               0                
23.8                           0.240063164011009 139.200947644239 0.970755477759628 50.3833446904909 0.970759062271672 50.3833446904908 0.240063164011008 141.565741736743 
! Gamma         0                21279.0201764777 0                20459.2749259301 
! Port Impedance         50               0                50               0                
24                             0.237721019971716 136.534868087933 0.97133188259407 47.7030887660596 0.971335064328265 47.7030887660596 0.237721019971717 138.871309444185 
! Gamma         0                21457.8388084544 0                20631.2041890184 
! Port Impedance         50               0                50               0                
24.2                           0.235166020443997 133.861813651197 0.971953651977155 45.0169578936433 0.971956780970805 45.0169578936432 0.235166020443997 136.172102136089 
! Gamma         0                21636.657523172  0                20803.1335168474 
! Port Impedance         50               0                50               0                
24.4                           0.232401961582511 131.18098410939  0.972615483499633 42.3248502093662 0.972624170909529 42.3248502093662 0.232401961582512 133.468716309343 
! Gamma         0                21815.4763225224 0                20975.0629100028 
! Port Impedance         50               0                50               0                
24.6                           0.229437826877799 128.494236760415 0.973322588256935 39.6263811872256 0.973324050039936 39.6263811872257 0.2294378268778  130.758525614036 
! Gamma         0                21994.2952071394 0                21146.9923692166 
! Port Impedance         50               0                50               0                
24.8                           0.226278994247738 125.800730201799 0.974068887063829 36.9214556671521 0.974056177507349 36.9214556671521 0.226278994247739 128.042181132505 
! Gamma         0                22173.1141771897 0                21318.9218946877 
! Port Impedance         50               0                50               0                
25                             0.222932316050461 123.09881253141  0.974844891394045 34.2099529150638 0.974822959887938 34.2099529150638 0.222932316050461 125.321093298718 
! Gamma         0                22351.9332338811 0                21490.8514872484 
! Port Impedance         50               0                50               0                
25.2                           0.21940608484772 120.38987845829  0.975653439291932 31.4916553155486 0.975613810804169 31.4916553155485 0.219406084847719 122.593432172807 
! Gamma         0                22530.7523777945 0                21662.781147234  
! Port Impedance         50               0                50               0                
25.4                           0.215702868537252 117.671053220429 0.976480130458838 28.7667913435533 0.97643796608209 28.7667913435533 0.215702868537252 119.862529466678 
! Gamma         0                22709.5716100681 0                21834.7108754917 
! Port Impedance         50               0                50               0                
25.6                           0.211839197767642 114.939845572433 0.977313209749304 26.0347755564161 0.977295860488948 26.0347755564161 0.211839197767642 117.129705540399 
! Gamma         0                22888.3909301305 0                22006.6406720422 
! Port Impedance         50               0                50               0                
25.8                           0.20782066999596 112.200436665255 0.9781651997033  23.2957567121725 0.97816868706089 23.2957567121725 0.20782066999596 114.39107675909  
! Gamma         0                23067.2103399618 0                22178.5705380178 
! Port Impedance         50               0                50               0                
26                             0.203664155118664 109.442439672408 0.978996409918974 20.5492082713296 0.979085216460734 20.5492082713296 0.203664155118664 111.65597687025  
! Gamma         0                23246.0298401045 0                22350.5004734921 
! Port Impedance         50               0                50               0                
26.2                           0.199367549428227 106.701444016925 0.979927512869529 17.7961381498726 0.97992205303336 17.7961381498726 0.199367549428227 108.89083228282  
! Gamma         0                23424.8494299156 0                22522.4304790851 
! Port Impedance         50               0                50               0                
26.4                           0.194955111712091 103.938913680459 0.980819226692388 15.0356471754119 0.980805104791276 15.0356471754118 0.194955111712092 106.132380670365 
! Gamma         0                23603.6691119444 0                22694.3605556667 
! Port Impedance         50               0                50               0                
26.6                           0.190433701718327 101.187355173179 0.981780117204455 12.2677491614703 0.981620006722094 12.2677491614703 0.190433701718327 103.348143149761 
! Gamma         0                23782.4888848196 0                22866.290703281  
! Port Impedance         50               0                50               0                
26.8                           0.185812801567176 98.361108615315  0.982523817879552 9.49255475762174 0.98264651218065 9.49255475762172 0.185812801567176 100.624000899929 
! Gamma         0                23961.3087520223 0                23038.2209227674 
! Port Impedance         50               0                50               0                
27                             0.181109778357412 95.5819765296113 0.9834467307543  6.71037259162096 0.983479041555705 6.71037259162093 0.181109778357412 97.8387686536307 
! Gamma         0                24140.1287114739 0                23210.1512147098 
! Port Impedance         50               0                50               0                
