! Touchstone file exported from HFSS 2026.1.0
!        Generated:      01:56:15 PM Aug 24, 2026
!        Design:         HFSSDesign_Supercell_15_4_15_stub_length
!        Project:        15-4-15_super_cell_cascade_validation
!        Setup:          Setup1
!        Solution:       Sweep_15_4_15_aux
!
! Variables:
!        stub_length = 8.34um
!
# GHz S MA R 50.000000
! Terminal data exported
! Port[1] = Port1
! Port[2] = Port2
14                             0.096096719242838 -92.5045093899741 0.995405163330857 -178.549054702773 0.995338839950792 -178.549054702773 0.0960967192428381 -84.5936000155725
! Gamma         5.26102132402714E-22 12285.2509625916 0                12297.0879650373
! Port Impedance         50               0                50               0
14.2                           0.09357449358457 -95.1556574172736 0.995618216195591 178.868485418205 0.995606345912478 178.868485418205 0.0935744935845703 -87.1073717463173
! Gamma         0                12460.7556122656 0                12472.7617148665
! Port Impedance         50               0                50               0
14.4                           0.0910778408103738 -98.0404531427615 0.99619901567856 176.284999066842 0.995488663716276 176.284999066842 0.091077840810374 -89.3895487235547
! Gamma         4.4687254757933E-21 12636.2603052761 0                12648.4355102612
! Port Impedance         50               0                50               0
14.6                           0.0885936062862498 -100.448599044331 0.996017075499691 173.698284227006 0.996118638254717 173.698284227006 0.0885936062862496 -92.1548325016575
! Gamma         4.00959735623188E-21 12811.7650446086 0                12824.1093510701
! Port Impedance         50               0                50               0
14.8                           0.0861462483140684 -103.144033531426 0.996285127276913 171.110873952475 0.996279876840445 171.110873952475 0.0861462483140678 -94.6342185636232
! Gamma         7.01301932173616E-21 12987.2698304832 0                12999.7832391252
! Port Impedance         50               0                50               0
15                             0.0837393787269391 -105.800010961307 0.996488082052021 168.521530962907 0.996487298077477 168.521530962907 0.0837393787269392 -97.1569271128798
! Gamma         0                13162.7746642561 0                13175.457174227
! Port Impedance         50               0                50               0
15.2                           0.0813812902075364 -108.452773303756 0.99668334003599 165.930475329516 0.996682743355863 165.930475329516 0.0813812902075374 -99.6862760372102
! Gamma         0                13338.2795456153 0                13351.1311568457
! Port Impedance         50               0                50               0
15.4                           0.079079557685578 -111.09958109031 0.996868310213578 163.337766687952 0.996868305848085 163.337766687952 0.0790795576855782 -102.224885533786
! Gamma         3.89518632356622E-23 13513.7844755428 0                13526.8051881134
! Port Impedance         50               0                50               0
15.6                           0.0768424927287374 -113.739626244912 0.997043211672307 160.743392577259 0.997043277235568 160.743392577259 0.0768424927287373 -104.773588600569
! Gamma         0                13689.2894538237 0                13702.4792685528
! Port Impedance         50               0                50               0
15.8                           0.074677693595308 -116.371348537239 0.997207660302524 158.147395901301 0.997207784963873 158.147395901301 0.0746776935953084 -107.333859660158
! Gamma         2.09242573735988E-21 13864.7944825356 0                13878.1533989386
! Port Impedance         50               0                50               0
16                             0.0725928351111207 -118.99333202111 0.997361580599917 155.54979857397  0.997361738851216 155.54979857397  0.0725928351111201 -109.907070830951
! Gamma         0                14040.2995618378 0                14053.8275793607
! Port Impedance         50               0                50               0
16.2                           0.0705954893100788 -121.604087649489 0.997504950554549 152.950617106603 0.997505101439252 152.950617106603 0.0705954893100783 -112.494678137306
! Gamma         1.4942396310037E-22 14215.8046905256 0                14229.5018108407
! Port Impedance         50               0                50               0
16.4                           0.0686928851861414 -124.202063097096 0.997637783410862 150.349874077349 0.997637924379727 150.349874077349 0.0686928851861414 -115.098188748208
! Gamma         8.27610322035213E-23 14391.3098729191 0                14405.1760943898
! Port Impedance         50               0                50               0
16.6                           0.0668922440124547 -126.785803192639 0.997760194071946 147.747577677717 0.997760216939655 147.747577677717 0.0668922440124543 -117.719041451926
! Gamma         5.76366157835253E-21 14566.8151064505 0                14580.8504299596
! Port Impedance         50               0                50               0
16.8                           0.0652005417004289 -129.353512813428 0.997872171391183 145.14374157562  0.997872190356553 145.14374157562  0.065200541700429 -120.359004035331
! Gamma         2.54367293040997E-21 14742.320393211  0                14756.5248187898
! Port Impedance         50               0                50               0
17                             0.0636245338667143 -131.903805963261 0.997973899633448 142.538370209223 0.997973914003214 142.538370209223 0.0636245338667142 -123.019453618292
! Gamma         0                14917.8257322868 0                14932.1992607689
! Port Impedance         50               0                50               0
17.2                           0.062170735669637 -134.435276422426 0.998065521285464 139.93146584915  0.998065536161713 139.931465849151 0.062170735669638 -125.701791879273
! Gamma         9.02354995579729E-21 15093.3311273604 0                15107.8737568615
! Port Impedance         50               0                50               0
17.4                           0.0608454613691205 -136.946739625649 0.998147190386808 137.323027141831 0.998147206570494 137.323027141831 0.0608454613691203 -128.407206090689
! Gamma         0                15268.8365759185 0                15283.548308408
! Port Impedance         50               0                50               0
17.6                           0.0596547561612109 -139.437207282535 0.998219060278338 134.713048924592 0.998219078074412 134.713048924592 0.0596547561612107 -131.136694868283
! Gamma         0                15444.3420800959 0                15459.2229150889
! Port Impedance         50               0                50               0
17.8                           0.0586044028429172 -141.90601978056 0.998281275067215 132.101522184797 0.998281294918934 132.101522184797 0.0586044028429172 -133.890935849844
! Gamma         0                15619.8476413043 0                15634.897578053
! Port Impedance         50               0                50               0
18                             0.0576999293299292 -144.352906723658 0.998333960062067 129.488434260547 0.998333982441465 129.488434260547 0.0576999293299296 -136.670224755249
! Gamma         0                15795.3532586768 0                15810.572297922
! Port Impedance         50               0                50               0
18.2                           0.0569466080489176 -146.778035330694 0.998377249575848 126.873767959968 0.998377200857878 126.873767959968 0.0569466080489173 -139.474428749368
! Gamma         1.51183498756311E-20 15970.8589334303 0                15986.2470747172
! Port Impedance         50               0                50               0
18.4                           0.056349284107914 -149.182044857116 0.998411140430409 124.257505687724 0.998411093200342 124.257505687724 0.056349284107914 -142.302943767435
! Gamma         8.45687533598339E-22 16146.3646656208 0                16161.9219100597
! Port Impedance         50               0                50               0
18.6                           0.0559126074964012 -151.566104671884 0.998435689315132 121.639623915745 0.998435643868811 121.639623915745 0.0559126074964018 -145.154647496626
! Gamma         2.45939178659516E-21 16321.870456904  0                16337.5968035658
! Port Impedance         50               0                50               0
18.8                           0.0556408496163544 -153.931914469048 0.998450866724732 119.020097701443 0.99845082925729 119.020097701443 0.0556408496163544 -148.027890128064
! Gamma         0                16497.3763068504 0                16513.2717569671
! Port Impedance         50               0                50               0
19                             0.0555378895885919 -156.281668236928 0.998456546109908 116.398898113645 0.998456614565886 116.398898113645 0.055537889588592 -150.920535535782
! Gamma         0                16672.8822172546 0                16688.946769926
! Port Impedance         50               0                50               0
19.2                           0.055607364204368 -158.618042853383 0.99845267773715 113.775996738781 0.998452749213503 113.775996738781 0.0556073642043686 -153.829963669054
! Gamma         0                16848.3881888255 0                16864.6218437088
! Port Impedance         50               0                50               0
19.4                           0.0558524095562205 -160.94406639824 0.998438998496455 111.151361749548 0.998439073241292 111.151361749548 0.0558524095562195 -156.753210102663
! Gamma         0                17023.8942211828 0                17040.2969785722
! Port Impedance         50               0                50               0
19.6                           0.0562757900542205 -163.263060404188 0.998415222780828 108.524960780607 0.99841530127851 108.524960780607 0.0562757900542202 -159.687018034598
! Gamma         0                17199.4003144051 0                17215.9721755663
! Port Impedance         50               0                50               0
19.8                           0.0568799033884483 -165.578503452821 0.998381034606356 105.896759723788 0.998381020913049 105.896759723788 0.056879903388449 -162.627977099603
! Gamma         0                17374.9064707845 0                17391.6474347217
! Port Impedance         50               0                50               0
20                             0.0576665406604755 -167.893936917159 0.99833587103068 103.266727742335 0.998335929830197 103.266727742335 0.0576665406604758 -165.572607598172
! Gamma         3.20979055805593E-20 17550.4126896369 0                17567.3227574229
! Port Impedance         50               0                50               0
20.2                           0.0586373008103553 -170.212803605235 0.998279322480598 100.63483221937  0.998279383847545 100.63483221937  0.0586373008103559 -168.517531956026
! Gamma         6.95327896828547E-23 17725.9189729702 0                17742.9981435702
! Port Impedance         50               0                50               0
20.4                           0.0597932115427123 -172.538416394106 0.998210754331701 98.0010391566193 0.998210816232401 98.0010391566193 0.0597932115427127 -171.459505292656
! Gamma         3.55531231205758E-23 17901.4253206074 0                17918.6735943042
! Port Impedance         50               0                50               0
20.6                           0.0611348901059462 -174.873745125768 0.998129475129006 95.3653201657878 0.99812955136203 95.3653201657878 0.0611348901059464 -174.395614542656
! Gamma         0                18076.9317323148 0                18094.3491100629
! Port Impedance         50               0                50               0
20.8                           0.0626624827772713 -177.221422231377 0.998034737286935 92.7276465652502 0.998034813858203 92.7276465652502 0.0626624827772713 -177.323284638123
! Gamma         0                18252.4382109987 0                18270.0246913665
! Port Impedance         50               0                50               0
21                             0.0643757433390543 -179.583679124799 0.997925692004693 90.0879935993443 0.997925769071051 90.0879935993443 0.0643757433390532 179.759666323488
! Gamma         0                18427.9447548147 0                18445.700338842
! Port Impedance         50               0                50               0
21.2                           0.0662739371888213 178.037686318711 0.997801426856782 87.4463394476348 0.997801504840297 87.4463394476348 0.066273937188821 176.854992576558
! Gamma         1.64081263213684E-22 18603.4513663038 0                18621.3760539117
! Port Impedance         50               0                50               0
21.4                           0.0683559709128049 175.641319362715 0.997660982789125 84.8026654131066 0.997661007507746 84.8026654131066 0.0683559709128043 173.964011463498
! Gamma         0                18778.9580450226 9.35338360448519E-23 18797.0518361727
! Port Impedance         50               0                50               0
21.6                           0.0706202906267318 173.2261650735   0.9975031765627  82.1569538040473 0.997503364330642 82.1569538040473 0.0706202906267329 171.087742534595
! Gamma         2.79980025863117E-22 18954.4647916255 8.97524718589109E-22 18972.7276866837
! Port Impedance         50               0                50               0
21.8                           0.0730648268036704 170.791835725547 0.99732708600855 79.5092049936491 0.997327301181533 79.5092049936491 0.0730648268036698 168.226574261752
! Gamma         3.10068478934252E-20 19129.9716067867 5.05381835673197E-22 19148.4036061882
! Port Impedance         50               0                50               0
22                             0.0756870845141989 168.338236613842 0.997131710607839 76.8594221614239 0.997131527019279 76.8594221614239 0.0756870845141999 165.380607709006
! Gamma         3.91538863525985E-22 19305.4784922564 0                19324.0795952673
! Port Impedance         50               0                50               0
22.2                           0.0784845945831592 165.865068336969 0.996915440777035 74.2075863518291 0.996915212426121 74.2075863518291 0.0784845945831592 162.55010436669
! Gamma         8.64755056256312E-23 19480.985447864  1.41576962299867E-22 19499.75565427
! Port Impedance         50               0                50               0
22.4                           0.0814542590907498 163.372535780909 0.996676814640745 71.5536978212133 0.99667734724424 71.5536978212133 0.0814542590907507 159.734859861518
! Gamma         4.41610704823491E-23 19656.4924729724 0                19675.4317843002
! Port Impedance         50               0                50               0
22.6                           0.084592053362358 160.861746942479 0.996415318904481 68.8978038267408 0.996416018171551 68.8978038267408 0.0845920533623581 156.933860711001
! Gamma         3.71786225273978E-22 19831.9995705376 1.75139680731274E-22 19851.1079858041
! Port Impedance         50               0                50               0
22.8                           0.0878942689749425 158.333123838279 0.996129352761864 66.2399107615657 0.996130266345616 66.2399107615656 0.0878942689749439 154.146697684853
! Gamma         0                20007.506739806  4.11184577606158E-23 20026.7842591372
! Port Impedance         50               0                50               0
23                             0.0913565496858908 155.78744334249  0.995817605556369 63.5800494129002 0.995818888214422 63.5800494129002 0.0913565496858912 151.372655483311
! Gamma         0                20183.0139814989 0                20202.4606050099
! Port Impedance         50               0                50               0
23.2                           0.094974028378563 153.226031165371 0.995479499766049 60.9182733880496 0.995480001513281 60.9182733880496 0.0949740283785638 148.610515610728
! Gamma         0                20358.521296918  2.98249173864697E-35 20378.1370242279
! Port Impedance         50               0                50               0
23.4                           0.0987422381850514 150.649126256903 0.995112783105064 58.2545828783364 0.995113304954555 58.2545828783364 0.0987422381850507 145.860039499769
! Gamma         0                20534.0286851829 2.77081213870734E-23 20553.813518059
! Port Impedance         50               0                50               0
23.6                           0.102654459046723 148.059869677578 0.994719835128853 55.5891387805062 0.994714317634627 55.5891387805062 0.102654459046723 143.118407883434
! Gamma         0                20709.5361487846 2.00794712351435E-22 20729.4900860717
! Port Impedance         50               0                50               0
23.8                           0.106707038614389 145.456249936417 0.994294798499801 52.9218424842514 0.994286211093305 52.9218424842514 0.106707038614389 140.387435032087
! Gamma         0                20885.0436880851 1.03916363577861E-22 20905.1667293813
! Port Impedance         50               0                50               0
24                             0.110894153541104 142.838659935645 0.993835435985129 50.2527294304116 0.993829009257805 50.2527294304116 0.110894153541104 137.666798925178
! Gamma         0                21060.5513017527 5.72682855997796E-22 21080.8434482688
! Port Impedance         50               0                50               0
24.2                           0.115206087054477 140.210805655717 0.993345158371676 47.5821222482825 0.993338065011636 47.5821222482825 0.115206087054477 134.953438840849
! Gamma         0                21236.0589926718 2.62784269280779E-34 21256.5202440305
! Port Impedance         50               0                50               0
24.4                           0.119640482916299 137.572973961573 0.9928227318367  44.9098541702671 0.992811831598636 44.9098541702672 0.119640482916299 132.246734378962
! Gamma         0                21411.5667603172 1.54410043004601E-22 21432.1971168419
! Port Impedance         50               0                50               0
24.6                           0.124184359891566 134.920966126936 0.992255964684047 42.2362433475025 0.992262359513083 42.2362433475026 0.124184359891566 129.551520568069
! Gamma         0                21587.074606657  1.69306792197946E-22 21607.8740674905
! Port Impedance         50               0                50               0
24.8                           0.128838264335726 132.265123491226 0.991664971362107 39.5611607196103 0.991666268389216 39.5611607196102 0.128838264335727 126.857197947995
! Gamma         0                21762.582529895  2.77894922047052E-34 21783.5510965426
! Port Impedance         50               0                50               0
25                             0.133594287383069 129.598647646063 0.991033328158216 36.8845688009806 0.991038886859526 36.8845688009806 0.13359428738307 124.170489955898
! Gamma         0                21938.0905330995 3.75697429296698E-23 21959.2282044785
! Port Impedance         50               0                50               0
25.2                           0.138439773507546 126.925860115981 0.99036734809833 34.2069508567794 0.990374360578977 34.2069508567794 0.138439773507546 121.488041597579
! Gamma         0                22113.5986154756 1.40562934792281E-22 22134.9053924145
! Port Impedance         50               0                50               0
25.4                           0.143365684276423 124.243970232377 0.989658417660496 31.5283867250436 0.989681149671131 31.5283867250436 0.143365684276423 118.81280321771
! Gamma         0                22289.1067779475 6.11575063530109E-23 22310.5826604663
! Port Impedance         50               0                50               0
25.6                           0.148372156115058 121.571047139388 0.988950346234978 28.8490200296638 0.98891284786243 28.8490200296638 0.148372156115058 116.126992919939
! Gamma         0                22464.6150222414 7.64126306296128E-23 22486.260009873
! Port Impedance         50               0                50               0
25.8                           0.153455218154285 118.867455059615 0.988144466860497 26.1676851659684 0.988166739549302 26.1676851659685 0.153455218154286 113.467915272322
! Gamma         0                22640.1233469719 1.17051130203827E-34 22661.9374404916
! Port Impedance         50               0                50               0
26                             0.158567699420457 116.141652244218 0.987249035141846 23.4867500181221 0.987447189108104 23.4867500181221 0.158567699420458 110.831847792026
! Gamma         0                22815.6317541299 0                22837.6149534874
! Port Impedance         50               0                50               0
26.2                           0.163759590819995 113.455560407501 0.986437387312314 20.8049539378177 0.986563170589103 20.8049539378177 0.163759590819997 108.154347468134
! Gamma         0                22991.1402439505 0                23013.2925494259
! Port Impedance         50               0                50               0
26.4                           0.16900017273762 110.759635443141 0.985576929629044 18.1221324918199 0.985655114695398 18.1221324918199 0.169000172737621 105.484629540499
! Gamma         0                23166.6488179588 0                23188.9702288763
! Port Impedance         50               0                50               0
26.6                           0.17424402361165 108.024642225193 0.984574129588427 15.4395260608602 0.984830893983525 15.4395260608603 0.17424402361165 102.854409896528
! Gamma         0                23342.1574757057 0                23364.6479923463
! Port Impedance         50               0                50               0
26.8                           0.1795655039613  105.368091875756 0.983783319521389 12.7567859311086 0.983708719779817 12.7567859311086 0.1795655039613  100.145479986461
! Gamma         0                23517.6662179352 8.74866515289071E-24 23540.3258408005
! Port Impedance         50               0                50               0
27                             0.184871249989551 102.625547375079 0.98270572645568 10.0733371430686 0.98281977496023 10.0733371430686 0.184871249989551 97.5211269110584
! Gamma         0                23693.1750452141 9.51441521655639E-23 23716.0037745637
! Port Impedance         50               0                50               0
