! Touchstone file exported from HFSS 2026.1.0
!        File:           C:/Users/urbaneja/Ansys/13-3-3_super_cell.aedt
!        Generated:      12:46:35 PM Aug 11, 2026
!        Design:         HFSSDesign_Supercell_13_3_13
!        Project:        13-3-3_super_cell
!        Setup:          Setup1
!        Solution:       Sweep_supercell_coarse
!
! Variables:
!        stub_length = 12um
!
# GHz S RI R 50.000000
! Terminal data exported
! Port[1] = Port1
! Port[2] = Port2
0.5                            0.00642325531139537 -0.00834766496164463 0.993717255325582 -0.111422954319345 0.993717255325418 -0.111422954319326 -0.00811250788202339 -0.00671780730382746 
! Gamma         0                447.034122201352 0                429.813512138505 
! Port Impedance         50               0                50               0                
1                              0.00381063460373249 -0.0162760056016736 0.975032548020752 -0.221431929716667 0.975032549491203 -0.22143193005061 -0.0104668956364154 -0.0130335486405375 
! Gamma         2.45611927012066E-32 894.068255312415 3.43873409001412E-33 859.627032725514 
! Port Impedance         50               0                50               0                
1.5                            -0.000377202120980635 -0.0233894038033269 0.944167282651432 -0.328634955708221 0.944167284319321 -0.328634956288761 -0.0142270923833216 -0.0185686923080642 
! Gamma         1.43786217999103E-33 1341.10241024287 5.06118217922992E-32 1289.44057020951 
! Port Impedance         50               0                50               0                
2                              -0.00590010479914674 -0.0293386727637879 0.901528606824027 -0.431683450094038 0.90152860775944 -0.431683450541947 -0.0191570665373193 -0.0229907754951029 
! Gamma         0                1788.13659790234 2.84248051821116E-32 1719.25413303892 
! Port Impedance         50               0                50               0                
2.5                            -0.0124404754965836 -0.0338408658888308 0.84767371516732 -0.529291321743211 0.847673714918688 -0.529291321587964 -0.0249450205441229 -0.0260329711085817 
! Gamma         2.70771923919565E-29 2235.17082920037 7.19802919622282E-30 2149.06772966211 
! Port Impedance         50               0                50               0                
3                              -0.0196208607277073 -0.036695999099047 0.783298091172621 -0.620251988834564 0.783298088180351 -0.620251986465143 -0.031220887069026 -0.0275105568136395 
! Gamma         1.90211625812809E-31 2682.20511504638 1.71196688575315E-31 2578.88136852733 
! Port Impedance         50               0                50               0                
3.5                            -0.0270249753876786 -0.0377979371470913 0.709221981147416 -0.703452309618975 0.709221978447809 -0.70345230694133 -0.0375759279979206 -0.027332818778443 
! Gamma         5.11331436440833E-30 3129.23946634965 0                3008.69505863744 
! Port Impedance         50               0                50               0                
4                              -0.0342191035273976 -0.0371426041556822 0.626375883359125 -0.777883497206257 0.626375881745571 -0.777883495202416 -0.0435867672588519 -0.0255090926849064 
! Gamma         0                3576.27389315265 0                3438.50880796558 
! Port Impedance         50               0                50               0                
4.5                            -0.0407766636039108 -0.034827766275255 0.535785880149786 -0.842649268977179 0.535785875059088 -0.842649260970858 -0.0488366633744212 -0.0221515215920637 
! Gamma         0                4023.30840494814 0                3868.32262360001 
! Port Impedance         50               0                50               0                
5                              -0.0463003997867444 -0.0310515110899909 0.438559461805848 -0.896971395491875 0.438559457744682 -0.896971387185703 -0.0529405118295805 -0.0174707060133881 
! Gamma         0                4470.34302346308 0                4298.13651535721 
! Port Impedance         50               0                50               0                
5.5                            -0.0504465295271816 -0.0261032949540787 0.335872404344914 -0.940193332951126 0.335872401084839 -0.940193323825335 -0.0555673347084438 -0.0117688428571412 
! Gamma         0                4917.37774357609 0                4727.95049226274 
! Port Impedance         50               0                50               0                
6                              -0.0529422858108031 -0.0203508975007323 0.228957177716081 -0.971782679028031 0.228957175616068 -0.971782670114768 -0.056458994643005 -0.00542462716315995 
! Gamma         0                5364.41258697305 0                5157.76456202108 
! Port Impedance         50               0                50               0                
6.5                            -0.053604517811645 -0.0142233272383573 0.119092519487578 -0.991333058902678 0.119092518383913 -0.991333049715706 -0.055448061323793 0.00112243618138615 
! Gamma         0                5811.44755812465 0                5587.57873319023 
! Port Impedance         50               0                50               0                
7                              -0.0523516625663824 -0.00819045627731098 0.00759422951287716 -0.998566250365348 0.00759422944556964 -0.998566241515071 -0.0524701788998002 0.00739327219286454 
! Gamma         0                6258.48267490055 0                6017.39301436634 
! Port Impedance         50               0                50               0                
7.5                            -0.0492133498295798 -0.00273993391298862 -0.104193446744742 -0.993334923169476 -0.104193446225435 -0.993334918218631 -0.0475736582344306 0.0128921713256459 
! Gamma         0                6705.51794117056 0                6447.20741345927 
! Port Impedance         50               0                50               0                
8                              -0.0443331831557316 0.00164765194906791 -0.214906432290584 -0.975626506005532 -0.214906432345258 -0.975626506253738 -0.0409223551357398 0.0171320382853109 
! Gamma         1.49348785630809E-21 7152.55337307381 0                6877.02193922934 
! Port Impedance         50               0                50               0                
8.5                            -0.0379678624379578 0.00452444584351994 -0.323170327544405 -0.945568039542646 -0.323170325214826 -0.945568032726502 -0.0327947996303496 0.0196603739919627 
! Gamma         1.29458922480927E-30 7599.58898042254 0                7306.83660001521 
! Port Impedance         50               0                50               0                
9                              -0.0304799533591086 0.0055008251342013 -0.427611410823888 -0.90343189870523 -0.427611410439156 -0.903431897892389 -0.0235768529969068 0.0200852840829484 
! Gamma         3.45961291761584E-22 8046.62477029904 0                7736.65140439512 
! Port Impedance         50               0                50               0                
9.5                            -0.0223248838572807 0.00426960418497374 -0.526870081269691 -0.849641856109912 -0.526870083299102 -0.849641859382585 -0.0137486151504139 0.0180998768112722 
! Gamma         8.30935494454339E-30 8493.66075777616 0                8166.46636162141 
! Port Impedance         50               0                50               0                
10                             -0.0140329562995734 0.000627755308158895 -0.619617167431581 -0.784778470015332 -0.619617167980191 -0.784778470710177 -0.0038662399051741 0.0135044484607211 
! Gamma         0                8940.69695538858 0                8596.28147868632 
! Port Impedance         50               0                50               0                
10.5                           -0.0061861512197611 -0.00550603917194981 -0.704573237193195 -0.709582962364249 -0.704573228751267 -0.709582953862296 0.00546207197193659 0.00622500634940792 
! Gamma         0                9387.73336530058 0                9026.096765215   
! Port Impedance         50               0                50               0                
11                             0.000610192202959863 -0.0140785508035722 -0.780531074148496 -0.624958164228919 -0.780531040832687 -0.624958137553509 0.013604292245442 -0.00367439243330353 
! Gamma         0                9834.770008539   0                9455.91222835543 
! Port Impedance         50               0                50               0                
11.5                           0.00575773044230471 -0.0248958836821289 -0.846380498176314 -0.531965356871267 -0.846380459989338 -0.531965332870065 0.0199362722802576 -0.0159844152763791 
! Gamma         0                10281.8068901406 0                9885.72787738692 
! Port Impedance         50               0                50               0                
12                             0.00869820916979941 -0.0376244702152732 -0.901134713743705 -0.431816085171679 -0.901134566342767 -0.431816014538404 0.0238753902689963 -0.0303516942071563 
! Gamma         0                10728.8440220964 0                10315.5437214078 
! Port Impedance         50               0                50               0                
12.5                           0.0089465627709161 -0.0517999890608489 -0.943956163797091 -0.325857769878739 -0.943956348177025 -0.325857833527494 0.024913842401886 -0.0462880147434737 
! Gamma         0                11175.8814179262 0                10745.3597676404 
! Port Impedance         50               0                50               0                
13                             0.00612308562028702 -0.0668432226010378 -0.974181632613252 -0.215553054723407 -0.974183118794514 -0.215553383564457 0.0226481083482639 -0.0631868006267965 
! Gamma         0                11622.9190859377 0                11175.1760251473 
! Port Impedance         50               0                50               0                
13.5                           -3.24982109601857E-05 -0.0820889846138888 -0.991350843526898 -0.102455878949262 -0.991338562803185 -0.102454609739325 0.0168202460193865 -0.0803472574200283 
! Gamma         0                12069.9570359516 0                11604.9925022168 
! Port Impedance         50               0                50               0                
14                             -0.00957730511106103 -0.0968133488693819 -0.995159990825178 0.0118302271051425 -0.99521232586208 0.01183084925171 0.0072731353395446 -0.0970136629286187 
! Gamma         0                12516.9952816227 0                12034.8092072632 
! Port Impedance         50               0                50               0                
14.5                           -0.0225346890614788 -0.110263006482306 -0.985656207035314 0.125656766076121 -0.985682638608769 0.125660135715573 -0.0058503188709973 -0.112390019924913 
! Gamma         0                12964.0338332847 0                12464.6261488267 
! Port Impedance         50               0                50               0                
15                             -0.0386346068698757 -0.121708495128513 -0.962973992030603 0.237429749200239 -0.962976551204444 0.237430380187169 -0.0223707065811342 -0.125718503496891 
! Gamma         0                13411.0726998329 0                12894.4433352607 
! Port Impedance         50               0                50               0                
15.5                           -0.0574784933967603 -0.130464826616425 -0.927502055750534 0.345563671657372 -0.927502848386523 0.345563966973378 -0.0418997686123113 -0.13626906317081 
! Gamma         0                13858.1118938574 0                13324.2607751097 
! Port Impedance         50               0                50               0                
16                             -0.0785449919977794 -0.135938613302603 -0.879845456806584 0.448578731469438 -0.879845882097617 0.448578948299008 -0.0638802525758514 -0.143415256111096 
! Gamma         0                14305.1514265646 0                13754.0784771108 
! Port Impedance         50               0                50               0                
16.5                           -0.101179445148148 -0.137654389163357 -0.820778014853395 0.545102805510296 -0.820778328332173 0.545103013700768 -0.0876351570056511 -0.146649549037898 
! Gamma         0                14752.1913070111 0                14183.8964485275 
! Port Impedance         50               0                50               0                
17                             -0.124633614701332 -0.135279843518915 -0.751224807967548 0.633898130783282 -0.751225020783983 0.633898310361937 -0.112388690639295 -0.145612349038147 
! Gamma         0                15199.2315491279 0                14613.7146991537 
! Port Impedance         50               0                50               0                
17.5                           -0.14810060156313 -0.128642421536713 -0.672233598409732 0.71387621558635 -0.672233652374142 0.713876272893672 -0.137301101886182 -0.140110914003981 
! Gamma         0                15646.2721612367 0                15043.5332370088 
! Port Impedance         50               0                50               0                
18                             -0.170741596255907 -0.117738758383423 -0.584947245908447 0.784105579129666 -0.584947277915513 0.784105622034251 -0.161505506802602 -0.130119480440554 
! Gamma         0                16093.3131534223 0                15473.3520703019 
! Port Impedance         50               0                50               0                
18.5                           -0.191734529481364 -0.102737202775292 -0.4905735231434 0.843813085852205 -0.490573539572898 0.843813114111833 -0.184145475250125 -0.115790787951533 
! Gamma         0                16540.3545390968 0                15903.1712071984 
! Port Impedance         50               0                50               0                
19                             -0.210302060227367 -0.0839630218857383 -0.390362704612937 0.892378942094217 -0.390362719826308 0.892378976872365 -0.204403972340129 -0.0974461988567855 
! Gamma         0                16987.3963289391 0                16332.9906568793 
! Port Impedance         50               0                50               0                
19.5                           -0.225744635167728 -0.061889394066153 -0.28558615051149 0.929327505441806 -0.285586150771468 0.929327506287801 -0.221542446773476 -0.0755637590549069 
! Gamma         0                17434.4385331206 0                16762.8104269439 
! Port Impedance         50               0                50               0                
20                             -0.237462480282619 -0.0371212836199448 -0.177522169590119 0.954316228683378 -0.177522168786755 0.954316224364686 -0.234926761508763 -0.0507526941804059 
! Gamma         0                17881.4811620578 0                17192.6305267164 
! Port Impedance         50               0                50               0                
