! Touchstone file exported from HFSS 2026.1.0
!        File:           C:/Users/urbaneja/Ansys/16-2-16_super_cell.aedt
!        Generated:      01:34:07 PM Aug 12, 2026
!        Design:         HFSSDesign_Supercell_16_2_16_Test
!        Project:        16-2-16_super_cell
!        Setup:          Setup1
!        Solution:       Sweep_16_2_16_aux
!
! Variables:
!        stub_length = 12um
!
# GHz S MA R 50.000000
! Terminal data exported
! Port[1] = Port1
! Port[2] = Port2
14                             0.129646437222718 -121.557576730009 0.991560299032103 148.61815228976  0.991560273515574 148.61815228976  0.129646437222717 -121.206118690471 
! Gamma         0                11856.4730213998 0                11974.0168592417 
! Port Impedance         50               0                50               0                
14.2                           0.136299715009452 -124.563850594007 0.990667622024395 145.559870247565 0.990667672859681 145.559870247565 0.136299715009452 -124.316408910864 
! Gamma         0                12025.8520083305 0                12145.0750926474 
! Port Impedance         50               0                50               0                
14.4                           0.142745937866592 -127.571028634069 0.98975933670242 142.50374496417  0.989759389879965 142.50374496417  0.142745937866591 -127.421481437591 
! Gamma         0                12195.2310320789 0                12316.1333635542 
! Port Impedance         50               0                50               0                
14.6                           0.148968936569929 -130.578540527895 0.98884184970034 139.449858225635 0.98884190250801 139.449858225635 0.148968936569929 -130.521743020834 
! Gamma         0                12364.6100871901 0                12487.1916703704 
! Port Impedance         50               0                50               0                
14.8                           0.154953165901035 -133.585915725786 0.98792179057887 136.398258080205 0.987921843292238 136.398258080205 0.154953165901036 -133.617568113805 
! Gamma         0                12533.9891791101 0                12658.2500120746 
! Port Impedance         50               0                50               0                
15                             0.160683796225401 -136.592823362543 0.987005921974445 133.348958151017 0.987005949956009 133.348958151017 0.160683796225401 -136.709260335424 
! Gamma         0                12703.3683070229 0                12829.3083932067 
! Port Impedance         50               0                50               0                
15.2                           0.166146918235626 -139.59902190256 0.9861009966498  130.301927370933 0.986101022982878 130.301927370933 0.166146918235626 -139.797123355574 
! Gamma         0                12872.7474709432 0                13000.3668134781 
! Port Impedance         50               0                50               0                
15.4                           0.171329289555592 -142.604327406494 0.985213816520007 127.257103288839 0.985213826952727 127.257103288839 0.171329289555592 -142.881466015829 
! Gamma         0                13042.1266724238 0                13171.4252722119 
! Port Impedance         50               0                50               0                
15.6                           0.176218570146995 -145.608627391547 0.984351058510775 124.214385069254 0.984351067800211 124.214385069254 0.176218570146996 -145.962602469945 
! Gamma         0                13211.5059078467 0                13342.4837684226 
! Port Impedance         50               0                50               0                
15.8                           0.180804266681062 -148.611659120932 0.983519094431753 121.173626265022 0.983519102604515 121.173626265022 0.180804266681063 -149.041088349024 
! Gamma         0                13380.8851824888 0                13513.5423058391 
! Port Impedance         50               0                50               0                
16                             0.185074503551836 -151.61370870419 0.982724488937164 118.134660070309 0.982724496038067 118.134660070309 0.185074503551836 -152.116971155192 
! Gamma         0                13550.2644968107 0                13684.6008829486 
! Port Impedance         50               0                50               0                
16.2                           0.189019331042633 -154.61485314382 0.981973358985997 115.097276762106 0.98197337399043 115.097276762106 0.189019331042633 -155.190593331968 
! Gamma         0                13719.6438473088 0                13855.6595004527 
! Port Impedance         50               0                50               0                
16.4                           0.192629565999199 -157.615190359836 0.981271542659851 112.061230468962 0.981271552717123 112.061230468962 0.192629565999199 -158.26234870224 
! Gamma         0                13889.023238051  0                14026.7181587456 
! Port Impedance         50               0                50               0                
16.6                           0.195896850082824 -160.614888631181 0.98062450337445 109.026244326815 0.98062451103206 109.026244326815 0.195896850082825 -161.33262271519 
! Gamma         0                14058.4026679919 0                14197.7768590318 
! Port Impedance         50               0                50               0                
16.8                           0.198813609738693 -163.614137435268 0.980037314772948 105.992012713558 0.980037325216735 105.992012713558 0.198813609738692 -164.401837137617 
! Gamma         0                14227.7821362991 0                14368.8356033835 
! Port Impedance         50               0                50               0                
17                             0.2013730821057  -166.613161760256 0.97951460852702 102.958200175309 0.979514622294462 102.958200175309 0.201373082105701 -167.470437889126 
! Gamma         0                14397.1616472113 0                14539.8943890013 
! Port Impedance         50               0                50               0                
17.2                           0.203569311752316 -169.612224717737 0.979060536403243 99.9244459114483 0.979060537803036 99.9244459114483 0.203569311752316 -170.538883459366 
! Gamma         0                14566.541196709  0                14710.9532185424 
! Port Impedance         50               0                50               0                
17.4                           0.205397075516218 -172.611609973694 0.978678721581291 96.8903672337421 0.978678722902863 96.8903672337421 0.205397075516219 -173.607655558822 
! Gamma         0                14735.920789222  0                14882.0120907191 
! Port Impedance         50               0                50               0                
17.6                           0.206851954232924 -175.61162377449 0.978372258657395 93.8555611043848 0.978372251011684 93.8555611043848 0.206851954232924 -176.677254016741 
! Gamma         0                14905.3004227598 0                15053.0710083845 
! Port Impedance         50               0                50               0                
17.8                           0.207930336412532 -178.61259246139 0.978143644507985 90.8196068649591 0.978143630101111 90.8196068649591 0.207930336412532 -179.748193808692 
! Gamma         0                15074.6800989133 0                15224.1299698692 
! Port Impedance         50               0                50               0                
18                             0.208629354842278 178.385147134256 0.977994789488244 87.7820710927684 0.977994773160898 87.7820710927684 0.208629354842278 177.178995051281 
! Gamma         0                15244.0598176315 0                15395.1889772832 
! Port Impedance         50               0                50               0                
18.2                           0.208946918258872 175.381249899151 0.977926981472807 84.7425110786149 0.977926985826512 84.7425110786149 0.208946918258873 174.103772258078 
! Gamma         0                15413.4395801365 0                15566.2480300404 
! Port Impedance         50               0                50               0                
18.4                           0.208881753626632 172.37537089663  0.977940905456848 81.7004753850834 0.977940903857674 81.7004753850834 0.208881753626633 171.025579873537 
! Gamma         0                15582.8193870892 0                15737.3071307545 
! Port Impedance         50               0                50               0                
18.6                           0.208433366366343 169.367191203812 0.978036661222816 78.6555149112406 0.978036478294418 78.6555149112406 0.208433366366344 167.943838618669 
! Gamma         0                15752.1992354934 0                15908.3662770874 
! Port Impedance         50               0                50               0                
18.8                           0.207602129832708 166.356320663526 0.97821347649097 75.6071699622308 0.978213221025643 75.6071699622308 0.207602129832708 164.858019260935 
! Gamma         0                15921.579130732  0                16079.4254708997 
! Port Impedance         50               0                50               0                
19                             0.206389173173379 163.342423648382 0.978470047733943 72.5549958567472 0.978469919865281 72.5549958567471 0.206389173173378 161.767568065112 
! Gamma         0                16090.9590698544 0                16250.4847120026 
! Port Impedance         50               0                50               0                
19.2                           0.204796616028027 160.325244702486 0.978804676734037 69.4985461821406 0.978804422206284 69.4985461821406 0.204796616028027 158.671847661795 
! Gamma         0                16260.3390556582 0                16421.5440017761 
! Port Impedance         50               0                50               0                
19.4                           0.202827318756767 157.304463333077 0.97921471605294 66.4373930496004 0.979214326589124 66.4373930496004 0.202827318756767 155.570322766124 
! Gamma         0                16429.7190880985 0                16592.6033408466 
! Port Impedance         50               0                50               0                
19.6                           0.200484664622459 154.28011323874  0.979698025360116 63.3711507356292 0.979695655606141 63.3711507356292 0.200484664622459 152.462188232518 
! Gamma         0                16599.0991659142 0                16763.662728009  
! Port Impedance         50               0                50               0                
19.8                           0.197774014690128 151.251563082302 0.98024944551293 60.2993836090189 0.980245837946434 60.2993836090189 0.197774014690128 149.347204135736 
! Gamma         0                16768.4792907848 0                16934.7221668851 
! Port Impedance         50               0                50               0                
20                             0.194700543900213 148.217842417966 0.980862044258737 57.2217438262854 0.980863418904173 57.2217438262855 0.194700543900213 146.225645234605 
! Gamma         0                16937.8594633159 0                17105.7816544182 
! Port Impedance         50               0                50               0                
20.2                           0.191271396334746 145.179855917479 0.981534625755543 54.1378670331757 0.981539751796898 54.1378670331757 0.191271396334745 143.095878148872 
! Gamma         0                17107.2396853661 0                17276.8411930778 
! Port Impedance         50               0                50               0                
20.4                           0.18749391405885 142.138786045793 0.982265889743586 51.0474626966337 0.982265639340037 51.0474626966337 0.18749391405885 139.956139347475 
! Gamma         0                17276.619955308  0                17447.9007852446 
! Port Impedance         50               0                50               0                
20.6                           0.183377319689159 139.093767822316 0.983047102207655 47.9502188393417 0.983038103111652 47.9502188393417 0.18337731968916 136.806669856367 
! Gamma         0                17446.0002743477 0                17618.960426904  
! Port Impedance         50               0                50               0                
20.8                           0.178932500702753 136.041136019794 0.983860490003733 44.8457971704644 0.983862214233836 44.8457971704644 0.178932500702753 133.650458321135 
! Gamma         0                17615.3806420751 0                17790.0201220594 
! Port Impedance         50               0                50               0                
21                             0.174168033022309 132.983940347155 0.9847089901771  41.7341384812523 0.984722903869036 41.7341384812523 0.174168033022308 130.48433661535  
! Gamma         0                17784.7610594776 0                17961.0798701074 
! Port Impedance         50               0                50               0                
21.2                           0.169095835817393 129.92656818199  0.985598102630366 38.6151065195561 0.985601124552417 38.6151065195561 0.169095835817393 127.303644857122 
! Gamma         0                17954.1415282067 0                18132.1396727096 
! Port Impedance         50               0                50               0                
21.4                           0.163733134667897 126.861752990421 0.986498335788798 35.4882845052307 0.986511000886449 35.4882845052307 0.163733134667896 124.11481602004  
! Gamma         0                18123.522046876  0                18303.1995278454 
! Port Impedance         50               0                50               0                
21.6                           0.158088600972334 123.795503741809 0.987418497616452 32.3539700053936 0.987431364306219 32.3539700053935 0.158088600972335 120.912436268978 
! Gamma         0                18292.9026182671 0                18474.2594377451 
! Port Impedance         50               0                50               0                
21.8                           0.152188210826202 120.720441117177 0.988330105447415 29.2114648004103 0.988372956668467 29.2114648004103 0.152188210826201 117.702488483643 
! Gamma         0                18462.2832403285 0                18645.3194021333 
! Port Impedance         50               0                50               0                
22                             0.146033507718649 117.657077324208 0.989277518601897 26.0617414185332 0.989281769999691 26.0617414185332 0.146033507718648 114.466405512859 
! Gamma         0                18631.6639155361 0                18816.3794224383 
! Port Impedance         50               0                50               0                
22.2                           0.139657032414237 114.582926644021 0.990192571558939 22.9039192702294 0.990207300539102 22.9039192702295 0.139657032414236 111.224911896438 
! Gamma         0                18801.0446450656 0                18987.4394979782 
! Port Impedance         50               0                50               0                
22.4                           0.133065634632497 111.490925827391 0.99105229840932 19.7387001395587 0.991162160116546 19.7387001395588 0.133065634632496 107.986474451726 
! Gamma         0                18970.4254261784 0                19158.4996317957 
! Port Impedance         50               0                50               0                
22.6                           0.126298384516907 108.458517852379 0.992023419576776 16.5655151646727 0.99196117616683 16.5655151646727 0.126298384516907 104.672512476966 
! Gamma         4.58199578925253E-22 19139.8062603836 0                19329.5598206307 
! Port Impedance         50               0                50               0                
22.8                           0.119351193053644 105.440276477236 0.992980201804971 13.3856739687144 0.992724014965086 13.3856739687144 0.119351193053645 101.331071460194 
! Gamma         0                19309.1871499699 0                19500.6200680758 
! Port Impedance         50               0                50               0                
23                             0.112252365517539 102.206363820023 0.993459493043389 10.1982549974174 0.993900016407203 10.1982549974175 0.112252365517539 98.1901461748118 
! Gamma         0                19478.5680938043 0                19671.6803734345 
! Port Impedance         50               0                50               0                
23.2                           0.105064225648034 99.2555388181626 0.994445416715499 7.00317250481803 0.994485460806253 7.00317250481804 0.105064225648034 94.7508061914737 
! Gamma         0                19647.9490941725 0                19842.7407369312 
! Port Impedance         50               0                50               0                
23.4                           0.0977577224062905 96.1600244081997 0.995094630929427 3.80198578397048 0.995325868440121 3.80198578397048 0.0977577224062912 91.443947159741  
! Gamma         0                19817.3301490507 0                20013.8011602028 
! Port Impedance         50               0                50               0                
23.6                           0.0903947448025633 93.1786831322309 0.995863085183898 0.594024985875672 0.995948946063129 0.59402498587565 0.0903947448025629 88.0093668395207 
! Gamma         0                19986.7112610159 0                20184.8616420832 
! Port Impedance         50               0                50               0                
23.8                           0.0829839188116319 90.207035969617  0.996549620870941 -2.61994365672792 0.996552151964822 -2.61994365672791 0.0829839188116319 84.553076716927  
! Gamma         0                20156.0924284808 0                20355.9221845364 
! Port Impedance         50               0                50               0                
24                             0.0755556192574506 87.2417272667965 0.997141015008721 -5.83974826524358 0.997142162876459 -5.83974826524358 0.0755556192574506 81.0787762027168 
! Gamma         1.34839443812248E-21 20325.473653214  0                20526.9827867601 
! Port Impedance         50               0                50               0                
24.2                           0.0681384373827382 84.3203898478972 0.997675754363571 -9.06507513549107 0.997675997434644 -9.06507513549108 0.0681384373827383 77.5494598811198 
! Gamma         6.59003343485089E-22 20494.8549368221 0                20698.0434514381 
! Port Impedance         50               0                50               0                
24.4                           0.0607605200058695 81.4598909494008 0.998152559872448 -12.2956334409542 0.998152185609716 -12.2956334409542 0.0607605200058697 73.9488421686909 
! Gamma         7.30628883795379E-22 20664.2362775954 0                20869.1041771382 
! Port Impedance         50               0                50               0                
24.6                           0.0534515337557382 78.6847312328039 0.998570488311819 -15.5310378850191 0.998570401599717 -15.5310378850191 0.0534515337557377 70.2531929971573 
! Gamma         1.67768716034727E-22 20833.6176775013 0                21040.1649653237 
! Port Impedance         50               0                50               0                
24.8                           0.0462404043134495 76.0335356090956 0.998929929287207 -18.7710065092088 0.998930751550272 -18.7710065092088 0.0462404043134497 66.4244513724872 
! Gamma         1.9626340011162E-22 21002.9991370579 0                21211.2258152539 
! Port Impedance         50               0                50               0                
25                             0.0391580763201463 73.5712368607569 0.999232623362194 -22.0151694467642 0.999233433451451 -22.0151694467642 0.0391580763201461 62.3984242457142 
! Gamma         2.27970264092365E-21 21172.3806542151 0                21382.2867278502 
! Port Impedance         50               0                50               0                
25.2                           0.0322359506772315 71.4101090490727 0.999479958586928 -25.263248356945 0.99948061479519 -25.2632483569449 0.0322359506772316 58.0633942370362 
! Gamma         2.60824576264252E-24 21341.7622326471 0                21553.347705082  
! Port Impedance         50               0                50               0                
25.4                           0.0255088900719189 69.7704458024863 0.999674487882685 -28.5149574904714 0.99967470275642 -28.5149574904714 0.0255088900719189 53.1996392165728 
! Gamma         0                21511.1438719848 0                21724.4087459115 
! Port Impedance         50               0                50               0                
25.6                           0.0190193548050025 69.1464455903407 0.999819068477964 -31.7700401527949 0.999819162945714 -31.7700401527949 0.0190193548050024 47.3134741040683 
! Gamma         0                21680.5255709769 0                21895.4698521679 
! Port Impedance         50               0                50               0                
25.8                           0.012835717901346 70.9068048049096 0.999917574865927 -35.0282974130191 0.999917662693367 -35.0282974130191 0.0128357179013449 39.0366003690516 
! Gamma         0                21849.9073329267 0                22066.5310233302 
! Port Impedance         50               0                50               0                
26                             0.00715473107748884 80.476897226905  0.999974364384618 -38.2895257905949 0.999974444783467 -38.2895257905949 0.00715473107748992 22.9440511919004 
! Gamma         1.19117704208967E-22 22019.2891563883 0                22237.5922593122 
! Port Impedance         50               0                50               0                
26.2                           0.00339519755364387 130.159036250627 0.999994200786922 -41.5535799910802 0.999994271813432 -41.5535799910802 0.00339519755364365 -33.2661962328038 
! Gamma         0                22188.6710422213 0                22408.653562206  
! Port Impedance         50               0                50               0                
26.4                           0.00595900274711125 -168.150393534471 0.999982220062292 -44.8203455773701 0.99998226990873 -44.82034557737  0.00595900274711073 -101.490297620281 
! Gamma         3.99095540572881E-22 22358.0529907181 0                22579.7149304396 
! Port Impedance         50               0                50               0                
26.6                           0.0105997148602396 -155.581781386998 0.999943790682432 -48.0897697053226 0.999943852206422 -48.0897697053226 0.0105997148602401 -120.59775802365 
! Gamma         0                22527.4350026926 0                22750.7763677436 
! Port Impedance         50               0                50               0                
26.8                           0.0151968424057432 -153.118604231878 0.999884484932019 -51.3618363864433 0.999884557713552 -51.3618363864433 0.0151968424057439 -129.605068541006 
! Gamma         0                22696.8170785145 0                22921.8378709045 
! Port Impedance         50               0                50               0                
27                             0.0194940853745897 -153.509177068299 0.999810016423789 -54.6365873043276 0.99980992810108 -54.6365873043276 0.0194940853745896 -135.763997540357 
! Gamma         3.62119563640501E-22 22866.1992186841 0                23092.8994435344 
! Port Impedance         50               0                50               0                
