! Touchstone file exported from HFSS 2026.1.0
!        File:           C:/Users/urbaneja/Ansys/15-4-15_super_cell.aedt
!        Generated:      02:48:17 PM Aug 12, 2026
!        Design:         HFSSDesign_Supercell_15_4_15
!        Project:        15-4-15_super_cell
!        Setup:          Setup1
!        Solution:       Sweep_16_2_16_fine
!
! Variables:
!        stub_length = 12um
!
# GHz S RI R 50.000000
! Terminal data exported
! Port[1] = Port1
! Port[2] = Port2
3                              -0.0399996092087035 -0.0699819948212982 0.703028426726771 -0.706578790670649 0.703028423508818 -0.706578787436445 -0.0701825988958892 -0.0396465780141967 
! Gamma         1.19275398148058E-20 2664.13816131416 1.33591917897133E-30 2520.11647558328 
! Port Impedance         50               0                50               0                
3.1                            -0.0435188470426028 -0.0697396844118012 0.684203025918657 -0.724643851413454 0.684203021993995 -0.72464384725682 -0.072121204356933 -0.0394467427284006 
! Gamma         0                2752.94279194674 2.48211928169225E-30 2604.12037599984 
! Port Impedance         50               0                50               0                
3.2                            -0.0470061659815405 -0.0693013707374031 0.664919580406155 -0.74220596698012 0.664919576753565 -0.742205962902976 -0.0740325954053465 -0.0391335462731815 
! Gamma         4.39590506866756E-22 2841.74743009848 1.49742963041914E-29 2688.12427817675 
! Port Impedance         50               0                50               0                
3.3                            -0.0504510420198702 -0.0686689905745423 0.645191653302169 -0.759254238022202 0.645191649823278 -0.759254233928282 -0.0759101553826809 -0.0387089940090743 
! Gamma         0                2930.55206686389 3.52969149653493E-30 2772.12818217081 
! Port Impedance         50               0                50               0                
3.4                            -0.0538423530117483 -0.0678450870140035 0.625033056895824 -0.77577814370242 0.625033053577827 -0.775778139584191 -0.0777472979704073 -0.0381747621876022 
! Gamma         0                3019.35670631601 5.10601895995371E-32 2856.13208803879 
! Port Impedance         50               0                50               0                
3.5                            -0.0571695318669833 -0.0668327793316079 0.604457761236599 -0.791767544418545 0.604457758019688 -0.791767540204776 -0.0795375822415972 -0.0375333022559788 
! Gamma         1.43871906177874E-21 3108.16134719313 6.72849236732112E-30 2940.13599583747 
! Port Impedance         50               0                50               0                
3.6                            -0.0604217320587351 -0.0656357714653042 0.583479938911374 -0.807212689601938 0.583479935636941 -0.807212685071938 -0.0812745798293235 -0.0367869932773827 
! Gamma         5.56014947179031E-22 3196.96599483284 1.66284765417017E-31 3024.13990562365 
! Port Impedance         50               0                50               0                
3.7                            -0.063588907788205 -0.0642582644873908 0.562113876182139 -0.822104203671976 0.562113873212238 -0.822104199328428 -0.0829520942104789 -0.0359391682530959 
! Gamma         0                3285.77064407962 0                3108.14381885907 
! Port Impedance         50               0                50               0                
3.8                            -0.0666609698516878 -0.0627053261144638 0.540374015868343 -0.836433072834102 0.54037401304498 -0.836433068463883 -0.0845643185292331 -0.0349931258445902 
! Gamma         2.51828996529206E-22 3374.57529883574 0                3192.14773022099 
! Port Impedance         50               0                50               0                
3.9                            -0.0696282396280108 -0.0609820542404683 0.518274952560736 -0.850190670256076 0.518274949980744 -0.850190666023794 -0.0861052164121645 -0.0339528260929412 
! Gamma         3.091995434465E-22 3463.37995122309 0                3276.15164325576 
! Port Impedance         50               0                50               0                
4                              -0.0724808481074282 -0.0590942400286752 0.495831439888904 -0.86336874259152 0.495831437381219 -0.863368738225002 -0.0875688994752826 -0.0328221021817088 
! Gamma         0                3552.18460858479 0                3360.155565394   
! Port Impedance         50               0                50               0                
4.1                            -0.0752098040908063 -0.0570486694568016 0.47305828944427 -0.875959356654095 0.473058287038637 -0.875959352199598 -0.0889503600324576 -0.0316053598028083 
! Gamma         0                3640.98927048104 0                3444.15948558597 
! Port Impedance         50               0                50               0                
4.2                            -0.0778062557766923 -0.0548519764125813 0.449970468454095 -0.887954970628366 0.449970466138815 -0.887954966059477 -0.0902441770982907 -0.0303074455242755 
! Gamma         4.13217067201297E-21 3729.79393298383 0                3528.16340967386 
! Port Impedance         50               0                50               0                
4.3                            -0.0802613050014407 -0.0525115423260339 0.426583071375203 -0.899348402548507 0.426583069175792 -0.899348397911577 -0.0914451601155986 -0.0289330580724816 
! Gamma         0                3818.59860517968 0                3612.16733724808 
! Port Impedance         50               0                50               0                
4.4                            -0.0825673674991051 -0.0500353575995798 0.402911217928335 -0.910132763901472 0.402911216039091 -0.910132759633874 -0.0925490556249754 -0.0274878061833867 
! Gamma         0                3907.40327586092 0                3696.17126485981 
! Port Impedance         50               0                50               0                
4.5                            -0.0847167629291855 -0.0474317182247179 0.378970171385498 -0.920301535518199 0.37897016951391 -0.920301530973187 -0.0935514949781722 -0.0259772131357038 
! Gamma         0                3996.2079528873  0                3780.17519060781 
! Port Impedance         50               0                50               0                
4.6                            -0.0867019409362244 -0.044709040771886 0.354775310476691 -0.929848567709613 0.354775308798849 -0.929848563312074 -0.0944479739663816 -0.024407070747973 
! Gamma         2.91602115013651E-31 4085.01263099291 0                3864.17912398574 
! Port Impedance         50               0                50               0                
4.7                            -0.0885159131949279 -0.0418765716634478 0.3303420862947  -0.938768020775781 0.330342084643065 -0.938768016082158 -0.0952346523267187 -0.0227832205630589 
! Gamma         1.27966643649458E-31 4173.81731594897 0                3948.18306243653 
! Port Impedance         50               0                50               0                
4.8                            -0.0901527426240019 -0.0389438800119299 0.305685995097174 -0.947054345843026 0.305685993747786 -0.947054341662449 -0.0959084021883744 -0.0211121098587053 
! Gamma         1.45364026475201E-21 4262.6220018569  0                4032.18699851105 
! Port Impedance         50               0                50               0                
4.9                            -0.0916060849576056 -0.0359205867293912 0.280822675700498 -0.954702396471114 0.28082267446201 -0.954702392260668 -0.0964655384563374 -0.01940008357128 
! Gamma         6.39710730086889E-21 4351.42669459758 0                4116.19094265738 
! Port Impedance         50               0                50               0                
5                              -0.0928710504832093 -0.0328170348119692 0.255767789781146 -0.961707259279612 0.255767788584735 -0.961707254781013 -0.0969037117246637 -0.01765390737735 
! Gamma         0                4440.23138966364 0                4200.19488486587 
! Port Impedance         50               0                50               0                
5.1                            -0.0939424942727574 -0.0296434955415617 0.230537116006132 -0.968064415972786 0.230537114984792 -0.968064411684012 -0.0972200692466408 -0.0158804028219736 
! Gamma         2.61904842261383E-21 4529.03609057816 0                4284.19883360502 
! Port Impedance         50               0                50               0                
5.2                            -0.0948164597822679 -0.0264108277893767 0.205146486032698 -0.973769598429992 0.205146485115375 -0.97376959407573 -0.0974128356873505 -0.0140866004952138 
! Gamma         3.76657811788535E-22 4617.84079450467 0                4368.20278130676 
! Port Impedance         50               0                50               0                
5.3                            -0.0954890063910412 -0.0231298925334558 0.179611827273879 -0.978818907311053 0.179611826534568 -0.978818903282081 -0.0974800121044896 -0.0122796380348121 
! Gamma         0                4706.64550304333 0                4452.20673191786 
! Port Impedance         50               0                50               0                
5.4                            -0.0959571095707965 -0.0198119039362752 0.153949132922921 -0.983208721447591 0.153949132320883 -0.983208717602623 -0.0974203488956636 -0.0104668063806131 
! Gamma         0                4795.45021567391 0                4536.21068497766 
! Port Impedance         50               0                50               0                
5.5                            -0.0962181534135142 -0.016468208076974 0.128174474363481 -0.986935749033196 0.128174473907754 -0.986935745524122 -0.0972328002394307 -0.00865548849990048 
! Gamma         3.64351633367606E-24 4884.2549322024  0                4620.21464306709 
! Port Impedance         50               0                50               0                
5.6                            -0.0962699374172137 -0.0131103249861567 0.102304009644515 -0.989997026060789 0.102304009286126 -0.989997022592653 -0.0969165425152768 -0.00685312034341545 
! Gamma         0                4973.05965641979 0                4704.21860608125 
! Port Impedance         50               0                50               0                
5.7                            -0.0961115414908029 -0.009749980160193 0.0763539535074783 -0.992389836242031 0.0763539532135541 -0.992389832421831 -0.0964718257459949 -0.00506728310803527 
! Gamma         0                5061.86438236879 0                4788.22257071301 
! Port Impedance         50               0                50               0                
5.8                            -0.0957420741028938 -0.00639892337613319 0.0503406208280002 -0.994111831874684 0.0503406206576655 -0.994111828510966 -0.0958987195674899 -0.00330553463353064 
! Gamma         0                5150.66911283751 0                4872.22653946896 
! Port Impedance         50               0                50               0                
5.9                            -0.0951613171570371 -0.00306900000169648 0.0242803996416837 -0.995160977162505 0.0242803995603877 -0.995160973830491 -0.0951977570178494 -0.00157546908667729 
! Gamma         5.66070799773546E-22 5239.47385055183 0                4956.23050947516 
! Port Impedance         50               0                50               0                
6                              -0.0943698367757399 0.000227903744050795 -0.00181024256972525 -0.995535538676811 -0.00181024256282126 -0.995535534879988 -0.0943700415419336 0.000115293408699301 
! Gamma         1.38857431980398E-21 5328.27859307171 0                5040.23448225531 
! Port Impedance         50               0                50               0                
6.1                            -0.0933688780236516 0.00347988703851967 -0.0279147509973264 -0.995234099863245 -0.0279147508888788 -0.995234095996803 -0.0934171415141786 0.00175916699499539 
! Gamma         8.49412513528944E-21 5417.08333673368 0                5124.23845849703 
! Port Impedance         50               0                50               0                
6.2                            -0.0921596990566277 0.00667504811302558 -0.0540164981971375 -0.994255628762355 -0.0540164979900731 -0.99425562495102 -0.0923404212560993 0.00334858175432515 
! Gamma         0                5505.88809207557 0                5208.24244570951 
! Port Impedance         50               0                50               0                
6.3                            -0.0907454708229297 0.00980159250704101 -0.0800987575142694 -0.992599305378994 -0.0800987572166468 -0.992599301690797 -0.0911429407575556 0.00487606815108155 
! Gamma         0                5594.69284663845 0                5292.24642712728 
! Port Impedance         50               0                50               0                
6.4                            -0.0891285898648347 0.0128477274835145 -0.106144731859213 -0.990264777718048 -0.106144731460781 -0.990264774000928 -0.08982676541892 0.00633418085935983 
! Gamma         0                5683.49760971836 0                5376.25041908559 
! Port Impedance         50               0                50               0                
6.5                            -0.0873131231128064 0.0158018637264665 -0.132137531318761 -0.987251941571513 -0.132137530828012 -0.987251937904937 -0.0883954150457733 0.00771563113603524 
! Gamma         0                5772.30237639809 0                5460.25440989446 
! Port Impedance         50               0                50               0                
6.6                            -0.0853032123484779 0.0186525051795233 -0.15806018890473 -0.983561092283487 -0.158060188975301 -0.983561092722623 -0.0868522648987972 0.00901321631776995 
! Gamma         0                5861.1071486709  0                5544.25840450713 
! Port Impedance         50               0                50               0                
6.7                            -0.0831036518645815 0.0213883053447236 -0.183895652473344 -0.979192887756495 -0.18389565266041 -0.97919288875257 -0.0852011179705538 0.0102198852888106 
! Gamma         5.66047534306129E-24 5949.91192713703 0                5628.26240640139 
! Port Impedance         50               0                50               0                
6.8                            -0.0807201442864877 0.0239982250054472 -0.209626787458235 -0.97414832157189 -0.209626787682358 -0.974148322613399 -0.0834464840456691 0.0113287597493897 
! Gamma         0                6038.71671153379 0                5712.26640876873 
! Port Impedance         50               0                50               0                
6.9                            -0.0781588504344933 0.0264714356306426 -0.235236377962891 -0.968428780159946 -0.235236378302824 -0.968428781559393 -0.0815931143982303 0.0123331459241303 
! Gamma         0                6127.5215016823  0                5796.27041229441 
! Port Impedance         50               0                50               0                
7                              -0.0754263488952183 0.0287972495429009 -0.260707143857084 -0.962036053204726 -0.260707144326091 -0.962036054935411 -0.0796459226718226 0.0132265902882557 
! Gamma         0                6216.32629617789 0                5880.27442608902 
! Port Impedance         50               0                50               0                
7.1                            -0.0725300642240543 0.0309655131536263 -0.28602172328993 -0.954972302391719 -0.286021723937422 -0.95497230455357 -0.0776105366815928 0.0140027789102043 
! Gamma         0                6305.13109935264 0                5964.27844115611 
! Port Impedance         50               0                50               0                
7.2                            -0.0694780006703148 0.0329662871144238 -0.311162683464232 -0.947240102443668 -0.311162684740889 -0.947240106330058 -0.0754928921582539 0.0146557803216681 
! Gamma         0                6393.93590645084 0                6048.28245860063 
! Port Impedance         50               0                50               0                
7.3                            -0.0662786709171092 0.0347900945519218 -0.33611253704378 -0.938842449538521 -0.336112538561101 -0.938842453776764 -0.0732992850504493 0.0151798454723077 
! Gamma         0                6482.74071958492 0                6132.28648290771 
! Port Impedance         50               0                50               0                
7.4                            -0.0629410264816231 0.0364277337146559 -0.360853742012159 -0.929782782264692 -0.36085374276738 -0.92978278421061 -0.0710361990478269 0.0155695543604697 
! Gamma         0                6571.5455387349  0                6216.29051236569 
! Port Impedance         50               0                50               0                
7.5                            -0.0594747168012862 0.0378706263909466 -0.385368702923643 -0.920064961762209 -0.385368703954859 -0.92006496422423 -0.068710706809293 0.0158197677480859 
! Gamma         0                6660.35036495474 0                6300.29454286591 
! Port Impedance         50               0                50               0                
7.6                            -0.0558897876261352 0.0391104939852479 -0.409639790921458 -0.909693321830213 -0.409639792078204 -0.909693324399016 -0.0663300083365109 0.0159257368665666 
! Gamma         0                6749.15519653302 0                6384.29857832892 
! Port Impedance         50               0                50               0                
7.7                            -0.05219665034796 0.0401394918883893 -0.433649358083008 -0.898672667424202 -0.433649358928936 -0.898672669177257 -0.0639014825887287 0.0158829984438621 
! Gamma         0                6837.96003570583 0                6468.30261879049 
! Port Impedance         50               0                50               0                
7.8                            -0.0484063943593703 0.0409504049641  -0.457379724293149 -0.887008269878226 -0.457379725345493 -0.887008271919064 -0.0614330198832074 0.0156875348486676 
! Gamma         0                6926.76488118863 0                6552.30666380888 
! Port Impedance         50               0                50               0                
7.9                            -0.0445305006563917 0.0415365571429441 -0.480813210359432 -0.874705895806887 -0.480813211091312 -0.874705897138342 -0.058932738001507 0.0153356923431512 
! Gamma         0                7015.56973234294 0                6636.31071239871 
! Port Impedance         50               0                50               0                
8                              -0.0405808585185304 0.0418918813239165 -0.503932144036752 -0.861771812174529 -0.503932145123394 -0.861771814032792 -0.0564090311449685 0.0148242033257818 
! Gamma         0                7104.37459052266 0                6720.31476379229 
! Port Impedance         50               0                50               0                
8.1                            -0.0365697185490128 0.0420107844751179 -0.526718878247652 -0.848212808274355 -0.526718880810134 -0.848212812400903 -0.0538704036284291 0.0141502628908084 
! Gamma         0                7193.17945461956 0                6804.31882318872 
! Port Impedance         50               0                50               0                
8.2                            -0.0325097300322619 0.0418884614000215 -0.549155804706442 -0.834036193305306 -0.54915580727756 -0.834036197210218 -0.0513257325560617 0.013311458327893 
! Gamma         0                7281.98432674858 0                6888.32288724302 
! Port Impedance         50               0                50               0                
8.3                            -0.0284138977969528 0.0415207224765762 -0.571225365524576 -0.819249813189656 -0.571225368609596 -0.819249817614183 -0.0487840675075413 0.0123058823500088 
! Gamma         0                7370.78920570133 0                6972.32695532294 
! Port Impedance         50               0                50               0                
8.4                            -0.0242955319570353 0.0409040697831111 -0.592910080278277 -0.803862062429783 -0.592910083542311 -0.803862066855129 -0.0462546425485667 0.0111321085424675 
! Gamma         0                7459.59409047349 0                7056.33102519392 
! Port Impedance         50               0                50               0                
8.5                            -0.0201680795501204 0.0400355535975003 -0.614192572008873 -0.787881895822866 -0.614192575540881 -0.787881900353699 -0.0437466585747246 0.00978911886457307 
! Gamma         0                7548.39898347765 0                7140.33510203226 
! Port Impedance         50               0                50               0                
8.6                            -0.0160453775775965 0.0389130998139228 -0.635055567713197 -0.771318829339198 -0.635055571495012 -0.771318833932474 -0.041269639651643 0.00827649211680748 
! Gamma         0                7637.20388292973 0                7224.33918354817 
! Port Impedance         50               0                50               0                
8.7                            -0.0119413323766899 0.0375352945761075 -0.655481939896906 -0.754182952872302 -0.655481944038084 -0.754182957637049 -0.0388331049134601 0.006594218727485 
! Gamma         0                7726.00878957868 0                7308.34326959867 
! Port Impedance         50               0                50               0                
8.8                            -0.0078700799824523 0.0359015022892182 -0.675454719851019 -0.73648493931111 -0.675454719562438 -0.736484938996456 -0.0364466894367218 0.00474287409236773 
! Gamma         0                7814.81370404611 0                7392.3473612738  
! Port Impedance         50               0                50               0                
8.9                            -0.00384586504345133 0.0340118330740227 -0.694957120068534 -0.718236037640394 -0.694957120091972 -0.718236037664618 -0.0341200483308748 0.00272355812978659 
! Gamma         0                7903.61862427784 0                7476.35145801965 
! Port Impedance         50               0                50               0                
9                              0.000117109760460476 0.0318671736423496 -0.713972573116635 -0.699448092438072 -0.713972573367713 -0.699448092684042 -0.0318628507059763 0.000537787631270714 
! Gamma         0                7992.42355410792 0                7560.35556025516 
! Port Impedance         50               0                50               0                
9.1                            0.00400443675252785 0.0294691641151205 -0.732484742698736 -0.68013354058477 -0.732484743826179 -0.680133541631633 -0.0296847273265785 -0.00181221160342787 
! Gamma         0                8081.22849026783 0                7644.35966677461 
! Port Impedance         50               0                50               0                
9.2                            0.00780186888248286 0.0268202895263645 -0.750477557499836 -0.660305404070031 -0.750477566480043 -0.66030541197124 -0.0275953197556383 -0.00432381959863382 
! Gamma         0                8170.03343456364 0                7728.36377760205 
! Port Impedance         50               0                50               0                
9.3                            0.0114951392607069 0.0239237341161342 -0.767935237896722 -0.639977319351761 -0.767935251599549 -0.639977330771342 -0.0256040994242733 -0.00699380964528146 
! Gamma         0                8258.83838650774 0                7812.36789491662 
! Port Impedance         50               0                50               0                
9.4                            0.0150700973705513 0.020783560232134 -0.784842337420578 -0.619163484913562 -0.784842353230829 -0.619163497386296 -0.0237205147051311 -0.00981842109528164 
! Gamma         0                8347.64334642564 0                7896.37201690989 
! Port Impedance         50               0                50               0                
9.5                            0.0185127696980232 0.0174045951817935 -0.801183748894541 -0.597878707495139 -0.801183756154666 -0.597878712912965 -0.0219538558374374 -0.0127933884957497 
! Gamma         5.33122584233403E-21 8436.4483147883  0                7980.37614262416 
! Port Impedance         50               0                50               0                
9.6                            0.0218093143476527 0.0137923677767831 -0.816944739549365 -0.57613835798701 -0.816944747215326 -0.576138363393318 -0.0203131465560063 -0.0159138831904401 
! Gamma         0                8525.25329087704 0                8064.38027723851 
! Port Impedance         50               0                50               0                
9.7                            0.0249461682977148 0.00995334623310368 -0.832110997338704 -0.553958394621419 -0.832111001271163 -0.553958397239361 -0.0188073702523198 -0.0191745466221788 
! Gamma         0                8614.05827422938 0                8148.38441535432 
! Port Impedance         50               0                50               0                
9.8                            0.027910061386096 0.00589467968505103 -0.846668641143739 -0.531355331707942 -0.846668645206137 -0.531355334257436 -0.0174451961391335 -0.0225695349272463 
! Gamma         0                8702.86326576454 0                8232.38855970997 
! Port Impedance         50               0                50               0                
9.9                            0.0306880395352479 0.0016242652004454 -0.860604264042849 -0.508346241969769 -0.860604268331436 -0.508346244502974 -0.0162350184381664 -0.0260924928719115 
! Gamma         0                8791.66826604209 0                8316.39270935543 
! Port Impedance         50               0                50               0                
10                             0.0332675053353808 -0.00284923252449781 -0.873904958271319 -0.484948734151032 -0.873904961873112 -0.484948736149744 -0.0151849522231884 -0.0297365476005154 
! Gamma         0                8880.47327452417 0                8400.39686467218 
! Port Impedance         50               0                50               0                
10.1                           0.0356362983461857 -0.00751640565079364 -0.886558341583059 -0.461180942070854 -0.886558344713581 -0.461180943699328 -0.0143028119528842 -0.0334943530160854 
! Gamma         1.03557882518501E-23 8969.27829141441 0                8484.40102551423 
! Port Impedance         50               0                50               0                
10.2                           0.0377827185815638 -0.0123671506201491 -0.898552590127282 -0.437061505406902 -0.898552592853424 -0.437061506732915 -0.0135960508813802 -0.0373581000360844 
! Gamma         0                9058.08331650936 0                8568.40519135286 
! Port Impedance         50               0                50               0                
10.3                           0.0396954881040265 -0.0173907400880318 -0.909876500798378 -0.41260957012165 -0.909876433634632 -0.412609539664324 -0.0130716438637532 -0.0413195080237608 
! Gamma         0                9146.88834967051 0                8652.40936362483 
! Port Impedance         50               0                50               0                
10.4                           0.0413640535574262 -0.0225756715580257 -0.920519386125899 -0.38784469399222 -0.920519300544323 -0.387844657933924 -0.012736364798308 -0.0453699337085904 
! Gamma         0                9235.69339235146 0                8736.41354209052 
! Port Impedance         50               0                50               0                
10.5                           0.0427782633899955 -0.0279099170349871 -0.930471307277954 -0.362786947180506 -0.930471152416034 -0.362786886800478 -0.0125963552272355 -0.0495002537625113 
! Gamma         0                9324.49844396272 0                8820.41772634354 
! Port Impedance         50               0                50               0                
10.6                           0.0439283188262642 -0.033380779357335 -0.939722931512379 -0.33745673961267 -0.939722730980051 -0.337456667601035 -0.0126571344572881 -0.053700750206446 
! Gamma         0                9413.30350413773 0                8904.4219159393  
! Port Impedance         50               0                50               0                
10.7                           0.044805764994354 -0.0389749942664987 -0.948265533730383 -0.311874865114116 -0.948265475961516 -0.311874846114525 -0.012924240330331 -0.0579618043774228 
! Gamma         0                9502.10857215609 0                8988.42611079371 
! Port Impedance         50               0                50               0                
10.8                           0.0454024179718354 -0.0446789187409859 -0.956091342265357 -0.286062653294511 -0.95609126383233 -0.286062629827339 -0.0134023008231936 -0.062273298211975 
! Gamma         0                9590.91364977443 0                9072.43031443928 
! Port Impedance         50               0                50               0                
10.9                           0.0457110880643205 -0.0504782240750778 -0.963193049360342 -0.260041572780725 -0.963193025566868 -0.260041566356994 -0.0140957701231763 -0.0666247997552898 
! Gamma         0                9679.71873759516 0                9156.43452227865 
! Port Impedance         50               0                50               0                
11                             0.0457252181688865 -0.0563582145359884 -0.969564108891985 -0.233833446786126 -0.969564414937796 -0.233833520596353 -0.0150084111418002 -0.0710055738465331 
! Gamma         0                9768.52383362859 0                9240.43873539988 
! Port Impedance         50               0                50               0                
11.1                           0.0454389676085366 -0.0623037866622041 -0.975198809404594 -0.207460358204375 -0.97519981035286 -0.207460571142582 -0.0161433714535949 -0.0754045964639443 
! Gamma         0                9857.32893881091 0                9324.44295665362 
! Port Impedance         50               0                50               0                
11.2                           0.0448477880151604 -0.0682995236412518 -0.980091830058098 -0.180944677385309 -0.980094671070335 -0.180945201893346 -0.0175036320120124 -0.0798108506774786 
! Gamma         0                9946.13405356523 0                9408.44718371483 
! Port Impedance         50               0                50               0                
11.3                           0.0439446349922293 -0.0743296558270134 -0.984241940637433 -0.154308897478023 -0.984242473909021 -0.154308981084043 -0.0190885687514373 -0.0842119660320565 
! Gamma         0                10034.9391775776 0                9492.45141857072 
! Port Impedance         50               0                50               0                
11.4                           0.0427301055283802 -0.0803781420910602 -0.987641887131533 -0.127575737967266 -0.98764330749894 -0.127575921439051 -0.0209031375321356 -0.0885977792373476 
! Gamma         0                10123.7443112691 0                9576.45565693785 
! Port Impedance         50               0                50               0                
11.5                           0.0411992433248636 -0.0864284742790428 -0.990291679027805 -0.1007677019012 -0.990292680366817 -0.10076780379303 -0.0229459130393244 -0.0929556017221998 
! Gamma         0                10212.5494549528 0                9660.45990356356 
! Port Impedance         50               0                50               0                
11.6                           0.0393501629648582 -0.0924647644458812 -0.99218996371655 -0.0739081748782137 -0.992188449824532 -0.073908062108482 -0.0252165082747217 -0.0972743321736216 
! Gamma         0                10301.3546070613 0                9744.46415691264 
! Port Impedance         50               0                50               0                
11.7                           0.0371921147010004 -0.0984688229664656 -0.993325693426707 -0.0470188960337104 -0.993339683365192 -0.0470195582449746 -0.0277246544875404 -0.101541646755802 
! Gamma         0                10390.1597697988 0                9828.46841546046 
! Port Impedance         50               0                50               0                
11.8                           0.0347116661351932 -0.104426063991346 -0.993712890721332 -0.0201240984165429 -0.993733017931193 -0.0201245060211497 -0.0304553873825534 -0.105745789448017 
! Gamma         0                10478.9649411024 0                9912.47267971597 
! Port Impedance         50               0                50               0                
11.9                           0.0319010607844765 -0.110321314137792 -0.993361570175128 0.00675206442663976 -0.993360292243236 0.0067520557402974 -0.0333977930843549 -0.109877465612194 
! Gamma         0                10567.7701239604 0                9996.4769534297  
! Port Impedance         50               0                50               0                
12                             0.0287918607607858 -0.116133428095211 -0.992242820685064 0.0335900828937625 -0.992252833735029 0.0335904218623819 -0.0365798011007997 -0.113920421868249 
! Gamma         0                10656.5753161709 0                10080.481231802  
! Port Impedance         50               0                50               0                
12.1                           0.0253635889355018 -0.121848696433901 -0.990383179175831 0.0603657117862191 -0.990389942109982 0.060366123999737 -0.0399746618094488 -0.117866207538675 
! Gamma         0                10745.3805179285 0                10164.4855192675 
! Port Impedance         50               0                50               0                
12.2                           0.0216266505574695 -0.127450345686112 -0.987779230558297 0.0870562889005085 -0.987781331725525 0.0870564740834071 -0.0435853679506649 -0.121702992282233 
! Gamma         0                10834.1857304948 0                10248.4898111897 
! Port Impedance         50               0                50               0                
12.3                           0.0175472481851289 -0.132919067145386 -0.984474125120553 0.113645262472992 -0.984393999217699 0.113636012936587 -0.0473698719980736 -0.125425195062859 
! Gamma         0                10922.9909530837 0                10332.4941124555 
! Port Impedance         50               0                50               0                
12.4                           0.0133081108139632 -0.138255791927252 -0.980291948962962 0.140084124258279 -0.980404277252349 0.140100176017211 -0.0514983482040783 -0.128994922175719 
! Gamma         0                11011.796186245  0                10416.498418313  
! Port Impedance         50               0                50               0                
12.5                           0.0086285442956302 -0.143413649713756 -0.975531858801269 0.166395055523103 -0.975540177505327 0.1663964744324  -0.0556812555622149 -0.132444420342637 
! Gamma         0                11100.6014294432 0                10500.502733641  
! Port Impedance         50               0                50               0                
12.6                           0.00371236434544764 -0.148401438997305 -0.969998634707152 0.192526150097343 -0.969998199728383 0.192526063762389 -0.0601078750414124 -0.135734343861492 
! Gamma         0                11189.4066832004 0                10584.5070534676 
! Port Impedance         50               0                50               0                
12.7                           -0.00147649448923565 -0.1531978590383 -0.963745092058136 0.218462273389381 -0.963742988553243 0.218461796565722 -0.0647273695870376 -0.138860115498434 
! Gamma         0                11278.2119479976 0                10668.5113831973 
! Port Impedance         50               0                50               0                
12.8                           -0.00693089978607503 -0.157788716389373 -0.956780533397624 0.244183297068859 -0.956780741377618 0.244183350148159 -0.069531307319579 -0.141812248039727 
! Gamma         0                11367.0172229275 0                10752.515718053  
! Port Impedance         50               0                50               0                
12.9                           -0.0126444239669409 -0.162159085744267 -0.949116986308576 0.269669209528738 -0.949116999163527 0.269669213181169 -0.0745087630565371 -0.144581792680328 
! Gamma         0                11455.8225085547 0                10836.5200609134 
! Port Impedance         50               0                50               0                
13                             -0.0186054407413133 -0.166295806741469 -0.940762287202234 0.294899760826136 -0.940762279728138 0.29489975848324 -0.0796529984861317 -0.147159293274813 
! Gamma         1.65129267480718E-29 11544.627805963  0                10920.5244121592 
! Port Impedance         50               0                50               0                
13.1                           -0.0248031281098797 -0.170186110970266 -0.931726292895468 0.319855613446873 -0.931726287271605 0.319855611516238 -0.0849554742686987 -0.14953619937326 
! Gamma         5.83288304872803E-29 11633.4331139633 0                11004.5287682536 
! Port Impedance         50               0                50               0                
13.2                           -0.0312257981524239 -0.173817515640176 -0.922019500794305 0.344517578976702 -0.922019594743806 0.344517614081442 -0.0904071147458204 -0.151704096243032 
! Gamma         5.33224731018307E-29 11722.23843281   0                11088.5331343756 
! Port Impedance         50               0                50               0                
13.3                           -0.0378612338729763 -0.177178303449517 -0.911653067720404 0.36886712212173 -0.911653167720224 0.368867162583005 -0.0959984609424265 -0.153655197570141 
! Gamma         1.05079250521485E-29 11811.0437614232 0                11172.5375062036 
! Port Impedance         50               0                50               0                
13.4                           -0.0446965579536266 -0.1802573123533 -0.900638671320742 0.392886184856926 -0.900638623300007 0.392886163908809 -0.10171963714082 -0.155382097970381 
! Gamma         9.17488842081518E-29 11899.8491020559 0                11256.5418861195 
! Port Impedance         50               0                50               0                
13.5                           -0.0517182235677307 -0.183044282447867 -0.888988269685778 0.416557223035044 -0.888988225700833 0.416557202424821 -0.107560658630917 -0.156877942046483 
! Gamma         0                11988.6544545221 0                11340.5462731605 
! Port Impedance         50               0                50               0                
13.6                           -0.0589123887263847 -0.185529448014762 -0.876714588533917 0.439863311865692 -0.876714544338836 0.439863289692234 -0.113510888037148 -0.158136409226745 
! Gamma         0                12077.459817578  0                11424.5506685778 
! Port Impedance         50               0                50               0                
13.7                           -0.0662646058256799 -0.187703879896533 -0.863830713160235 0.462788077765364 -0.863830667796198 0.462788053462065 -0.119559555468088 -0.15915167988343 
! Gamma         0                12166.2651923009 0                11508.5550708401 
! Port Impedance         50               0                50               0                
13.8                           -0.0737600565463037 -0.189559349313301 -0.850350164319583 0.485315729568977 -0.850350118034003 0.485315703152659 -0.125695535306874 -0.159918495671122 
! Gamma         0                12255.0705793428 0                11592.5594820627 
! Port Impedance         50               0                50               0                
13.9                           -0.0813835320372226 -0.191088459262459 -0.836286834856081 0.507431086634977 -0.836286785574193 0.507431056732363 -0.131907521339333 -0.160432179952363 
! Gamma         0                12343.8759767872 0                11676.5639002925 
! Port Impedance         50               0                50               0                
14                             -0.08911946279697 -0.192284540493794 -0.821655000766762 0.529119546984994 -0.821654950483544 0.52911951460421 -0.138183942778305 -0.160688584287659 
! Gamma         0                12432.6813862206 0                11760.5683270139 
! Port Impedance         50               0                50               0                
