! Touchstone file exported from HFSS 2026.1.0
!        Generated:      01:09:50 PM Aug 20, 2026
!        Design:         HFSSDesign_Supercell_15_4_15
!        Project:        15-4-15_super_cell
!        Setup:          Setup1
!        Solution:       Sweep_16_2_16_aux
!
! Variables:
!        stub_length = 12.1um
!
# GHz S MA R 50.000000
! Terminal data exported
! Port[1] = Port1
! Port[2] = Port2
14                             0.185444907978602 -117.89812463935 0.982654760540176 151.494875593743 0.982654564838215 151.494875593743 0.185444907978601 -119.112124173165 
! Gamma         0                12079.8651550384 0                12139.8222072022 
! Port Impedance         50               0                50               0                
14.2                           0.192185277665308 -120.939634150722 0.981358731227498 148.491637822988 0.981358588254565 148.491637822988 0.192185277665308 -122.077090203302 
! Gamma         0                12252.4355740949 0                12313.249189879  
! Port Impedance         50               0                50               0                
14.4                           0.198758387484028 -123.975896340831 0.980048512247422 145.491124864388 0.98004852964081 145.491124864388 0.198758387484028 -125.041853930393 
! Gamma         0                12425.006030858  0                12486.6762133712 
! Port Impedance         50               0                50               0                
14.6                           0.205151374616886 -127.006978283966 0.978730239150399 142.493412803348 0.978730272321342 142.493412803348 0.205151374616887 -128.006196109337 
! Gamma         0                12597.5765272688 0                12660.1032775615 
! Port Impedance         50               0                50               0                
14.8                           0.211351419668194 -130.033106717914 0.977410122592232 139.49855661291  0.977410152936175 139.49855661291  0.211351419668195 -130.969780056266 
! Gamma         0                12770.1470647646 0                12833.5303837933 
! Port Impedance         50               0                50               0                
15                             0.217346202337727 -133.054567472637 0.976094565258343 136.506580668824 0.976094593946643 136.506580668824 0.217346202337728 -133.932271189714 
! Gamma         0                12942.717641414  0                13006.9575317985 
! Port Impedance         50               0                50               0                
15.2                           0.223124238821528 -136.071541362893 0.974790001564524 133.517474936728 0.974790029160364 133.517474936728 0.223124238821527 -136.893508763651 
! Gamma         0                13115.2882599449 0                13180.3847225683 
! Port Impedance         50               0                50               0                
15.4                           0.228674722242608 -139.084226925801 0.973502883900741 130.531197149233 0.973502890520348 130.531197149233 0.228674722242608 -139.853378775732 
! Gamma         0                13287.8589197505 0                13353.8119566836 
! Port Impedance         50               0                50               0                
15.6                           0.233987458357074 -142.092825768559 0.972239610878256 127.54767292696  0.972239619488165 127.54767292696  0.233987458357074 -142.811828377522 
! Gamma         0                13460.4296228792 0                13527.2392350875 
! Port Impedance         50               0                50               0                
15.8                           0.239052980681402 -145.097569203419 0.971006520013454 124.566795700188 0.971006530846233 124.566795700188 0.239052980681403 -145.768839396205 
! Gamma         0                13633.0003672217 0                13700.6665575112 
! Port Impedance         50               0                50               0                
16                             0.243862400659942 -148.098694005991 0.969809854298564 121.588427949289 0.969809829602761 121.588427949289 0.243862400659942 -148.724450095431 
! Gamma         0                13805.5711574463 0                13874.0939250875 
! Port Impedance         50               0                50               0                
16.2                           0.248407611157425 -151.096473089359 0.968655606516046 118.61239960769  0.968655580380949 118.61239960769  0.248407611157425 -151.678727695261 
! Gamma         0                13978.1419886291 0                14047.5213386053 
! Port Impedance         50               0                50               0                
16.4                           0.252681056903937 -154.091181076757 0.967549642462048 115.638511688697 0.967549614405061 115.638511688697 0.252681056903937 -154.631795545849 
! Gamma         0                14150.7128658893 0                14220.9487977695 
! Port Impedance         50               0                50               0                
16.6                           0.256675891571722 -157.083125235411 0.966497551325466 112.666535265237 0.966497520252174 112.666535265237 0.256675891571722 -157.583804234115 
! Gamma         0                14323.2837879349 0                14394.3763039817 
! Port Impedance         50               0                50               0                
16.8                           0.260385906234179 -160.072629285965 0.965504642192034 109.696213157201 0.965504606708247 109.696213157201 0.260385906234178 -160.534944399633 
! Gamma         0                14495.8547560725 0                14567.8038571525 
! Port Impedance         50               0                50               0                
17                             0.263805543517244 -163.060035956116 0.964575902954285 106.727262300881 0.964575864232085 106.727262300881 0.263805543517243 -163.485439442122 
! Gamma         0                14668.4257693377 0                14741.2314585534 
! Port Impedance         50               0                50               0                
17.2                           0.266929879043353 -166.045708311176 0.963715975289244 103.759373904376 0.96371593237847 103.759373904376 0.266929879043354 -166.435543880072 
! Gamma         0                14840.9968281645 0                14914.6591086278 
! Port Impedance         50               0                50               0                
17.4                           0.269754582658477 -169.030023690297 0.962929127196564 100.792216344712 0.962929086831406 100.792216344712 0.269754582658476 -169.38554362028 
! Gamma         0                15013.5679361368 0                15088.0868073036 
! Port Impedance         50               0                50               0                
17.6                           0.272275977885468 -172.013381681274 0.962219221184267 97.8254360967575 0.962219181952099 97.8254360967575 0.272275977885468 -172.335746125211 
! Gamma         0                15186.1390923984 0                15261.5145554541 
! Port Impedance         50               0                50               0                
17.8                           0.274491005764886 -174.996192973387 0.961589684663256 94.8586611154693 0.961589649412672 94.8586611154693 0.274491005764885 -175.286484795674 
! Gamma         0                15358.7102951735 0                15434.9423537485 
! Port Impedance         50               0                50               0                
18                             0.276397162149243 -177.978881711272 0.961043511328186 91.8915018803316 0.96104348852988 91.8915018803316 0.276397162149242 -178.238114528065 
! Gamma         0                15531.2815480427 0                15608.3702033658 
! Port Impedance         50               0                50               0                
18.2                           0.277992595077157 179.038116780388 0.960583215609152 88.9235543662153 0.960583218703365 88.9235543662152 0.277992595077158 178.808991952042 
! Gamma         0                15703.8528498871 0                15781.7981038387 
! Port Impedance         50               0                50               0                
18.4                           0.279276031669771 176.054357805897 0.960210834865287 85.9544021913723 0.960210887710028 85.9544021913723 0.279276031669772 175.854446576848 
! Gamma         0                15876.4242008494 0                15955.2260563772 
! Port Impedance         50               0                50               0                
18.6                           0.28024670462201 173.069410204275 0.959928030889635 82.9836230022307 0.959927989283236 82.9836230022307 0.28024670462201 172.897835800186 
! Gamma         0                16048.9956031631 0                16128.6540612342 
! Port Impedance         50               0                50               0                
18.8                           0.280904663433933 170.082785259932 0.959735663081198 80.0107771170933 0.959735691288092 80.0107771170933 0.280904663433935 169.938768974255 
! Gamma         0                16221.5670567199 0                16302.0821189064 
! Port Impedance         50               0                50               0                
19                             0.281250437108847 167.094019556785 0.959634240042553 77.0354262286317 0.959634570339265 77.0354262286317 0.281250437108848 166.976832900478 
! Gamma         0                16394.1385617209 0                16475.5102305146 
! Port Impedance         50               0                50               0                
19.2                           0.281285085847777 164.102676755749 0.959623899343905 74.0571344568417 0.95962459991796 74.0571344568417 0.281285085847777 164.011592157934 
! Gamma         0                16566.7101182717 0                16648.9383960086 
! Port Impedance         50               0                50               0                
19.4                           0.28101027351554 161.108333188206 0.959704313906488 71.075466600897  0.959705205897893 71.075466600897  0.28101027351554 161.042600013589 
! Gamma         0                16739.2817278115 0                16822.3666162105 
! Port Impedance         50               0                50               0                
19.6                           0.280429483017568 158.110894307261 0.959876169206731 68.0899146368594 0.9598730905216  68.0899146368594 0.280429483017569 158.068934966457 
! Gamma         0                16911.8533913447 0                16995.7948916902 
! Port Impedance         50               0                50               0                
19.8                           0.279543816687172 155.109211722108 0.96013453873699 65.1001792449599 0.96013133301571 65.1001792449598 0.279543816687173 155.091146767812 
! Gamma         0                17084.4251074093 0                17169.2232230694 
! Port Impedance         50               0                50               0                
20                             0.27835769698874 152.103002176941 0.960478129391615 62.1057893132864 0.960476833669772 62.1057893132864 0.27835769698874 152.108576449632 
! Gamma         0                17256.9968779323 0                17342.6516109869 
! Port Impedance         50               0                50               0                
20.2                           0.276876000320274 149.09186974416  0.960904553161194 59.1063070836598 0.960906759582972 59.1063070836598 0.276876000320273 149.12074442316  
! Gamma         0                17429.5687045276 0                17516.0800557248 
! Port Impedance         50               0                50               0                
20.4                           0.275103651965865 146.076076342026 0.961414062002199 56.101335253219  0.961415083476207 56.101335253219  0.275103651965866 146.126594164412 
! Gamma         0                17602.1405847973 0                17689.5085582525 
! Port Impedance         50               0                50               0                
20.6                           0.273046140036032 143.054713827604 0.96200069309423 53.0905190809079 0.962001183631967 53.090519080908  0.273046140036033 143.126324334212 
! Gamma         0                17774.7125219848 1.16397689389498E-21 17862.9371183698 
! Port Impedance         50               0                50               0                
20.8                           0.27071173187111 140.02717425763  0.9626593040862  50.0734112318857 0.962661612777974 50.0734112318857 0.27071173187111 140.119648206142 
! Gamma         0                17947.2845153644 0                18036.3657377394 
! Port Impedance         50               0                50               0                
21                             0.268104138283361 136.994389231101 0.963391914843433 47.0498478877228 0.963387959495354 47.0498478877228 0.268104138283362 137.105306544345 
! Gamma         0                18119.8565669992 0                18209.7944162573 
! Port Impedance         50               0                50               0                
21.2                           0.265238449821608 133.955332725964 0.964190028041437 44.0191126607245 0.964175668384198 44.0191126607246 0.265238449821607 134.082892595485 
! Gamma         0                18292.4286741789 0                18383.2231545737 
! Port Impedance         50               0                50               0                
21.4                           0.262115875465327 130.908833609879 0.965044930547078 40.9813900407831 0.965027884557768 40.9813900407831 0.262115875465327 131.053946471687 
! Gamma         0                18465.0008409211 0                18556.6519532951 
! Port Impedance         50               0                50               0                
21.6                           0.258744775058808 127.851490611312 0.965937075353409 37.9365355684593 0.965954372378129 37.9365355684593 0.258744775058808 128.021580525607 
! Gamma         0                18637.573066502  0                18730.0808126994 
! Port Impedance         50               0                50               0                
21.8                           0.255146352369633 124.793256102569 0.966906944971905 34.8835512270158 0.966897945799361 34.8835512270158 0.255146352369633 124.973846351462 
! Gamma         0                18810.1453509795 0                18903.5097340824 
! Port Impedance         50               0                50               0                
22                             0.251324028238671 121.7243100691   0.967905157772   31.8228321189565 0.96790085816504 31.8228321189564 0.251324028238671 121.921354168813 
! Gamma         0                18982.717694895  0                19076.9387174004 
! Port Impedance         50               0                50               0                
22.2                           0.24729659750653 118.655827715799 0.96897546818348 28.7536972727353 0.968904191786948 28.7536972727353 0.247296597506531 118.851566829672 
! Gamma         0                19155.2900997152 0                19250.3677632409 
! Port Impedance         50               0                50               0                
22.4                           0.243065109090831 115.562639977335 0.970003207086629 25.6770284164333 0.970016744139104 25.6770284164333 0.243065109090831 115.791416855532 
! Gamma         0                19327.862565003  0                19423.7968723427 
! Port Impedance         50               0                50               0                
22.6                           0.238659942587263 112.466123221075 0.971075555375831 22.5914734847907 0.971130852366337 22.5914734847907 0.238659942587263 112.716823748506 
! Gamma         0                19500.4350920791 0                19597.22604539   
! Port Impedance         50               0                50               0                
22.8                           0.234067090945581 109.420845409559 0.972412295048778 19.4980057967632 0.972028636154647 19.4980057967632 0.23406709094558 109.575166183968 
! Gamma         0                19673.0076808268 0                19770.6552829363 
! Port Impedance         50               0                50               0                
23                             0.229357756822991 106.352992744984 0.973691049732814 16.3941954585506 0.972993455824715 16.3941954585506 0.229357756822991 106.435398172117 
! Gamma         0                19845.5803322825 0                19944.0845852475 
! Port Impedance         50               0                50               0                
23.2                           0.224495568677443 103.150102172492 0.974466948477861 13.2842517586619 0.974483271215602 13.2842517586619 0.224495568677443 103.418401344832 
! Gamma         0                20018.1530469226 0                20117.5139531884 
! Port Impedance         50               0                50               0                
23.4                           0.219518994498229 99.9663297625604 0.975360786294179 10.1657773742564 0.975855728905028 10.1657773742564 0.219518994498228 100.365224985953 
! Gamma         0                20190.7258246567 0                20290.9433871837 
! Port Impedance         50               0                50               0                
23.6                           0.214452975108514 96.8994578292988 0.976730375798777 7.03681637279248 0.976738253570656 7.03681637279248 0.214452975108513 97.1741749162864 
! Gamma         0                20363.2986672736 0                20464.3728877749 
! Port Impedance         50               0                50               0                
23.8                           0.20930421965611 93.7624747193748 0.977846333073395 3.90039891080277 0.977854813474437 3.90039891080278 0.209304219656111 94.0383231022311 
! Gamma         0                20535.8715740018 0                20637.8024558267 
! Port Impedance         50               0                50               0                
24                             0.204099134558555 90.6193828695771 0.978949330726755 0.755527496893172 0.978951119524226 0.755527496893217 0.204099134558555 90.8916721242092 
! Gamma         0                20708.4445460222 0                20811.2320913667 
! Port Impedance         50               0                50               0                
24.2                           0.198857884123377 87.4684264745577 0.980027186806361 -2.397659318948  0.980029487806184 -2.39765931894802 0.198857884123377 87.7362548875463 
! Gamma         0                20881.0175844067 0                20984.6617954084 
! Port Impedance         50               0                50               0                
24.4                           0.193602892593148 84.3111806913598 0.981079439516624 -5.55899067228636 0.981080513168023 -5.55899067228636 0.193602892593148 84.5708379640674 
! Gamma         0                21053.5906891348 0                21158.0915685551 
! Port Impedance         50               0                50               0                
24.6                           0.188356088246622 81.1476117087496 0.982100679536414 -8.72836866570389 0.982100923171868 -8.72836866570389 0.188356088246621 81.3956509598427 
! Gamma         0                21226.1638606733 0                21331.5214109541 
! Port Impedance         50               0                50               0                
24.8                           0.183140299448799 77.9780128095213 0.983086762472002 -11.9056452286296 0.983086811470854 -11.9056452286296 0.183140299448798 78.2106967332196 
! Gamma         0                21398.737099629  0                21504.951323269  
! Port Impedance         50               0                50               0                
25                             0.177979199035518 74.8029200000216 0.984034411882135 -15.0906395505502 0.984034087648002 -15.0906395505502 0.177979199035518 75.0158008988779 
! Gamma         0                21571.3104062066 0                21678.381306626  
! Port Impedance         50               0                50               0                
25.2                           0.172895689672266 71.6225029887988 0.984940275833771 -18.2832358125425 0.984940005292745 -18.2832358125425 0.172895689672266 71.8110253861162 
! Gamma         0                21743.8837819084 0                21851.8113608942 
! Port Impedance         50               0                50               0                
25.4                           0.167914109891767 68.4372765343265 0.985801764441392 -21.4832468115589 0.985801493518255 -21.4832468115589 0.167914109891767 68.5962298425556 
! Gamma         0                21916.457226172  0                22025.2414871445 
! Port Impedance         50               0                50               0                
25.6                           0.163058610995846 65.2476257500038 0.986616532532526 -24.6905075284298 0.98661623567312 -24.6905075284298 0.163058610995846 65.3713591931368 
! Gamma         0                22089.0307405341 0                22198.6716854908 
! Port Impedance         50               0                50               0                
25.8                           0.158353439319639 62.0539387992056 0.987382657105725 -27.9048565309581 0.987382329676924 -27.9048565309581 0.158353439319639 62.1363481388781 
! Gamma         0                22261.6043254074 0                22372.1019571038 
! Port Impedance         50               0                50               0                
26                             0.153822835567789 58.8565942915556 0.988098620081409 -31.1261392194057 0.988098268143969 -31.1261392194057 0.153822835567788 58.8911272696332 
! Gamma         0                22434.1779800256 0                22545.5323019483 
! Port Impedance         50               0                50               0                
26.2                           0.14949093688315 55.6558965786156 0.988763207627201 -34.354216144645 0.988762984148584 -34.354216144645 0.14949093688315 55.6356711320942 
! Gamma         0                22606.7517065543 0                22718.9627210042 
! Port Impedance         50               0                50               0                
26.4                           0.1453817174764  52.4522503495691 0.989375753519184 -37.5889468139162 0.989375525670421 -37.5889468139162 0.145381717476401 52.3698560225985 
! Gamma         0                22779.3255050973 0                22892.3932145773 
! Port Impedance         50               0                50               0                
26.6                           0.141518799051642 49.2458821801054 0.989935684018628 -40.830219909558 0.98993545271224 -40.830219909558 0.141518799051642 49.0936780007788 
! Gamma         0                22951.8993752962 0                23065.8237833254 
! Port Impedance         50               0                50               0                
26.8                           0.137925343416652 46.0369875166605 0.99044268766406 -44.077941752877 0.990442568622536 -44.077941752877 0.137925343416652 45.8071289775854 
! Gamma         0                23124.4733192096 0                23239.2544278597 
! Port Impedance         50               0                50               0                
27                             0.134624252129213 42.8256761632723 0.990896775658982 -47.3320268969798 0.990896665382393 -47.3320268969798 0.134624252129214 42.5102700427682 
! Gamma         0                23297.0473366861 0                23412.6851487807 
! Port Impedance         50               0                50               0                
